 vasp.5.4.4.18Apr17-6-g9f103f2a35 (build Jan 25 2019 22:30:10) complex

 executed on             LinuxIFC date 2021.08.23  21:50:43

 INCAR:
 POTCAR:    PAW_PBE Ni_pv 06Sep2000
 POTCAR:    PAW_PBE O 08Apr2002
 POTCAR:    PAW_PBE W 08Apr2002
 POTCAR:    PAW_PBE Cu_pv 06Sep2000
 POTCAR:    PAW_PBE Ni_pv 06Sep2000
   VRHFIN =Ni:

   TITEL  = PAW_PBE Ni_pv 06Sep2000
   POMASS =   58.690; ZVAL   =   16.000    mass and valenz
   ENMAX  =  367.986; ENMIN  =  275.989 eV

 POTCAR:    PAW_PBE O 08Apr2002
   VRHFIN =O: s2p4

   TITEL  = PAW_PBE O 08Apr2002
   POMASS =   16.000; ZVAL   =    6.000    mass and valenz
   ENMAX  =  400.000; ENMIN  =  300.000 eV

 POTCAR:    PAW_PBE W 08Apr2002
   VRHFIN =W : 6s5d

   TITEL  = PAW_PBE W 08Apr2002
   POMASS =  183.850; ZVAL   =    6.000    mass and valenz
   ENMAX  =  223.057; ENMIN  =  167.293 eV

 POTCAR:    PAW_PBE Cu_pv 06Sep2000
   VRHFIN =Cu: d10 p1

   TITEL  = PAW_PBE Cu_pv 06Sep2000
   POMASS =   63.546; ZVAL   =   17.000    mass and valenz
   ENMAX  =  368.648; ENMIN  =  276.486 eV

 Optimization of the real space projectors (new method)

 maximal supplied QI-value         = 18.90
 optimisation between [QCUT,QGAM] = [ 11.34, 22.87] = [ 36.00,146.41] Ry
 Optimized for a Real-space Cutoff    1.35 Angstroem

   l    n(q)    QCUT    max X(q) W(low)/X(q) W(high)/X(q)  e(spline)
   1      9    11.338     2.836    0.21E-04    0.44E-04    0.96E-07
   1      9    11.338     4.023    0.81E-04    0.11E-03    0.22E-06
   2      8    11.338    73.368    0.36E-03    0.40E-03    0.33E-06
   2      8    11.338    69.010    0.37E-03    0.41E-03    0.34E-06
   0      9    11.338    54.797    0.66E-04    0.74E-04    0.73E-07
   0      9    11.338    24.266    0.52E-04    0.65E-04    0.65E-07
 Optimization of the real space projectors (new method)

[...]

   l    n(q)    QCUT    max X(q) W(low)/X(q) W(high)/X(q)  e(spline)
   2     10    11.429   130.855    0.22E-03    0.64E-03    0.11E-05
   2     10    11.429   114.007    0.22E-03    0.64E-03    0.11E-05
   0     11    11.429    84.709    0.39E-04    0.67E-04    0.23E-06
   0     11    11.429    49.163    0.35E-04    0.62E-04    0.21E-06
   1     10    11.429    15.765    0.84E-04    0.15E-03    0.24E-06
   1     10    11.429    10.638    0.58E-04    0.12E-03    0.19E-06
 Optimization of the real space projectors (new method)

 maximal supplied QI-value         = 18.90
 optimisation between [QCUT,QGAM] = [ 11.34, 22.87] = [ 36.00,146.41] Ry
 Optimized for a Real-space Cutoff    1.35 Angstroem

   l    n(q)    QCUT    max X(q) W(low)/X(q) W(high)/X(q)  e(spline)
   1      9    11.338     3.172    0.27E-04    0.54E-04    0.11E-06
   1      9    11.338     4.083    0.75E-04    0.10E-03    0.21E-06
   2      8    11.338    65.342    0.34E-03    0.39E-03    0.31E-06
   2      8    11.338    61.381    0.35E-03    0.40E-03    0.31E-06
   0      9    11.338    65.742    0.63E-04    0.53E-04    0.82E-07
   0      9    11.338    30.431    0.56E-04    0.48E-04    0.75E-07
  PAW_PBE Ni_pv 06Sep2000               :
  PAW_PBE O 08Apr2002                   :
  PAW_PBE W 08Apr2002                   :
  PAW_PBE Cu_pv 06Sep2000               :

 POSCAR: Ni O4 Wi Cu
  positions in direct lattice
 exchange correlation table for  LEXCH =        8
   RHO(1)=    0.500       N(1)  =     2000
   RHO(2)=  100.500       N(2)  =     4000

 ion  position               nearest neighbor table
   1  0.250  0.650  0.125-  28 2.00  37 2.00  20 2.01  12 2.01  32 2.02  24 2.03
   2  0.250  0.653  0.625-  36 1.97  29 1.97  13 2.02  21 2.02  25 2.03  33 2.03
   3  0.750  0.652  0.625-  38 1.97  31 1.97  23 2.04  15 2.04  35 2.04  27 2.05
   4  0.250  0.351  0.376-  33 2.00  24 2.00  16 2.01  36 2.01   8 2.02  28 2.03
   5  0.250  0.351  0.874-  25 2.00  32 2.00  17 2.01   9 2.02  29 2.02  37 2.02
   6  0.750  0.347  0.377-  35 1.96  26 1.97  30 2.01  10 2.02  18 2.08  38 2.08
   7  0.750  0.347  0.873-  27 1.97  34 1.97  39 2.01  19 2.02  11 2.07  31 2.08
   8  0.113  0.115  0.462-  41 1.94   4 2.02  44 2.12
   9  0.117  0.113  0.962-  40 1.95   5 2.02  45 2.11
  10  0.612  0.114  0.465-  43 1.94   6 2.02  46 2.10
  11  0.611  0.108  0.966-  42 1.94   7 2.07  47 2.09
  12  0.387  0.883  0.039-  47 1.94   1 2.01  42 2.12
  13  0.386  0.890  0.539-  46 1.95   2 2.02  43 2.09
  14  0.892  0.891  0.033-  45 1.91  48 2.04  40 2.08
  15  0.889  0.888  0.536-  44 1.94   3 2.04  41 2.10
  16  0.383  0.114  0.288-  42 1.95   4 2.01  46 2.11
  17  0.386  0.114  0.788-  43 1.94   5 2.01  47 2.12
  18  0.889  0.107  0.284-  40 1.95   6 2.08  44 2.09
  19  0.888  0.114  0.785-  41 1.95   7 2.02  45 2.10
  20  0.113  0.882  0.211-  44 1.95   1 2.01  40 2.12
  21  0.115  0.891  0.711-  45 1.95   2 2.02  41 2.09
  22  0.609  0.892  0.218-  46 1.91  48 2.05  42 2.08
  23  0.612  0.888  0.714-  47 1.94   3 2.04  43 2.10
  24  0.132  0.380  0.204-  40 1.85   4 2.00   1 2.03
  25  0.132  0.381  0.703-  41 1.84   5 2.00   2 2.03
  26  0.631  0.371  0.209-  42 1.82   6 1.97  48 2.15
  27  0.633  0.378  0.706-  43 1.85   7 1.97   3 2.05
  28  0.368  0.620  0.296-  46 1.85   1 2.00   4 2.03
  29  0.365  0.621  0.794-  47 1.86   2 1.97   5 2.02
  30  0.871  0.613  0.302-  44 1.82   6 2.01  48 2.08
  31  0.869  0.625  0.792-  45 1.84   3 1.97   7 2.08
  32  0.366  0.379  0.046-  42 1.85   5 2.00   1 2.02
  33  0.367  0.380  0.546-  43 1.84   4 2.00   2 2.03
  34  0.869  0.371  0.040-  40 1.82   7 1.97  48 2.15
  35  0.866  0.378  0.544-  41 1.85   6 1.96   3 2.04
  36  0.136  0.622  0.455-  44 1.86   2 1.97   4 2.01
  37  0.133  0.621  0.953-  45 1.85   1 2.00   5 2.02
  38  0.632  0.626  0.458-  46 1.84   3 1.97   6 2.08
  39  0.629  0.612  0.948-  47 1.82   7 2.01  48 2.08
  40  0.002  0.174  0.123-  34 1.82  24 1.85  18 1.95   9 1.95  14 2.08  20 2.12  45 3.15  44 3.18

  41  0.001  0.174  0.623-  25 1.84  35 1.85   8 1.94  19 1.95  21 2.09  15 2.10  45 3.15  44 3.16

[...]

  48  0.750  0.663  0.125-  14 2.04  22 2.05  30 2.08  39 2.08  34 2.15  26 2.15

IMPORTANT INFORMATION: All symmetrisations will be switched off!
NOSYMM: (Re-)initialisation of all symmetry stuff for point group C_1.

 KPOINTS: Automatic mesh

Automatic generation of k-mesh.
Space group operators:
 irot       det(A)        alpha          n_x          n_y          n_z        tau_x        tau_y        tau_z
    1     1.000000     0.000001     1.000000     0.000000     0.000000     0.000000     0.000000     0.000000

 Subroutine IBZKPT returns following result:

 Found     68 irreducible k-points:

 Following reciprocal coordinates:
            Coordinates               Weight
  0.000000  0.000000  0.000000      1.000000
  0.250000 -0.000000  0.000000      2.000000
  0.500000 -0.000000  0.000000      1.000000
  0.000000  0.125000 -0.000000      2.000000
  0.250000  0.125000  0.000000      2.000000
  0.500000  0.125000  0.000000      2.000000
 -0.250000  0.125000  0.000000      2.000000
  0.000000  0.250000 -0.000000      2.000000
  0.250000  0.250000  0.000000      2.000000
  0.500000  0.250000  0.000000      2.000000
 -0.250000  0.250000  0.000000      2.000000
  0.000000  0.375000  0.000000      2.000000
  0.250000  0.375000  0.000000      2.000000
  0.500000  0.375000  0.000000      2.000000
 -0.250000  0.375000  0.000000      2.000000
  0.000000  0.500000 -0.000000      1.000000
  0.250000  0.500000 -0.000000      2.000000
  0.500000  0.500000  0.000000      1.000000
  0.000000  0.000000  0.250000      2.000000
  0.250000  0.000000  0.250000      2.000000
  0.500000 -0.000000  0.250000      2.000000
 -0.250000 -0.000000  0.250000      2.000000
  0.000000  0.125000  0.250000      2.000000
  0.250000  0.125000  0.250000      2.000000
  0.500000  0.125000  0.250000      2.000000
 -0.250000  0.125000  0.250000      2.000000
  0.000000  0.250000  0.250000      2.000000
  0.250000  0.250000  0.250000      2.000000
  0.500000  0.250000  0.250000      2.000000
 -0.250000  0.250000  0.250000      2.000000
  0.000000  0.375000  0.250000      2.000000
  0.250000  0.375000  0.250000      2.000000
  0.500000  0.375000  0.250000      2.000000
 -0.250000  0.375000  0.250000      2.000000
  0.000000  0.500000  0.250000      2.000000
  0.250000  0.500000  0.250000      2.000000
  0.500000  0.500000  0.250000      2.000000
 -0.250000  0.500000  0.250000      2.000000
 -0.000000 -0.375000  0.250000      2.000000
  0.250000 -0.375000  0.250000      2.000000
  0.500000 -0.375000  0.250000      2.000000
 -0.250000 -0.375000  0.250000      2.000000
 -0.000000 -0.250000  0.250000      2.000000
  0.250000 -0.250000  0.250000      2.000000
  0.500000 -0.250000  0.250000      2.000000
 -0.250000 -0.250000  0.250000      2.000000
  0.000000 -0.125000  0.250000      2.000000
  0.250000 -0.125000  0.250000      2.000000
  0.500000 -0.125000  0.250000      2.000000
 -0.250000 -0.125000  0.250000      2.000000
  0.000000  0.000000  0.500000      1.000000
  0.250000  0.000000  0.500000      2.000000
  0.500000  0.000000  0.500000      1.000000
 -0.000000  0.125000  0.500000      2.000000
  0.250000  0.125000  0.500000      2.000000
  0.500000  0.125000  0.500000      2.000000
 -0.250000  0.125000  0.500000      2.000000
  0.000000  0.250000  0.500000      2.000000
  0.250000  0.250000  0.500000      2.000000
  0.500000  0.250000  0.500000      2.000000
 -0.250000  0.250000  0.500000      2.000000
 -0.000000  0.375000  0.500000      2.000000
  0.250000  0.375000  0.500000      2.000000
  0.500000  0.375000  0.500000      2.000000
 -0.250000  0.375000  0.500000      2.000000
  0.000000  0.500000  0.500000      1.000000
  0.250000  0.500000  0.500000      2.000000
  0.500000  0.500000  0.500000      1.000000

 Following cartesian coordinates:
            Coordinates               Weight
  0.000000  0.000000  0.000000      1.000000
  0.027445 -0.000019  0.000171      2.000000
  0.054889 -0.000039  0.000341      1.000000
 -0.000016  0.022116 -0.000002      2.000000
  0.027429  0.022097  0.000168      2.000000
  0.054874  0.022078  0.000339      2.000000
 -0.027460  0.022136 -0.000173      2.000000
 -0.000031  0.044233 -0.000005      2.000000
  0.027413  0.044214  0.000166      2.000000
  0.054858  0.044194  0.000336      2.000000
 -0.027476  0.044252 -0.000175      2.000000
 -0.000047  0.066349 -0.000007      2.000000
  0.027397  0.066330  0.000163      2.000000
  0.054842  0.066311  0.000334      2.000000
 -0.027492  0.066369 -0.000178      2.000000
 -0.000063  0.088466 -0.000009      1.000000
  0.027382  0.088447  0.000161      2.000000
  0.054826  0.088427  0.000332      1.000000
  0.000129 -0.000003  0.025277      2.000000
  0.027574 -0.000022  0.025448      2.000000
  0.055018 -0.000041  0.025618      2.000000
 -0.027316  0.000017  0.025107      2.000000
  0.000113  0.022114  0.025275      2.000000
  0.027558  0.022095  0.025445      2.000000
  0.055003  0.022075  0.025616      2.000000
 -0.027332  0.022133  0.025104      2.000000
  0.000097  0.044230  0.025272      2.000000
  0.027542  0.044211  0.025443      2.000000
  0.054987  0.044192  0.025613      2.000000
 -0.027347  0.044250  0.025102      2.000000
  0.000082  0.066347  0.025270      2.000000
  0.027526  0.066328  0.025441      2.000000
[...]
    4        0.215   6.203   7.900  14.319
    5        0.215   6.202   7.899  14.316
    6        0.213   6.199   7.897  14.309
    7        0.213   6.199   7.896  14.308
    8        1.569   3.485   0.000   5.054
    9        1.569   3.483   0.000   5.051
   10        1.568   3.488   0.000   5.056
   11        1.569   3.482   0.000   5.051
   12        1.569   3.483   0.000   5.052
   13        1.569   3.489   0.000   5.058
   14        1.571   3.493   0.000   5.064
   15        1.569   3.483   0.000   5.052
   16        1.568   3.483   0.000   5.052
   17        1.569   3.485   0.000   5.054
   18        1.569   3.482   0.000   5.052
   19        1.568   3.487   0.000   5.056
   20        1.569   3.483   0.000   5.051
   21        1.569   3.487   0.000   5.056
   22        1.571   3.494   0.000   5.065
   23        1.569   3.483   0.000   5.053
   24        1.573   3.476   0.000   5.049
   25        1.573   3.477   0.000   5.051
   26        1.575   3.468   0.000   5.044
   27        1.573   3.481   0.000   5.053
   28        1.573   3.477   0.000   5.050
   29        1.573   3.478   0.000   5.051
   30        1.574   3.469   0.000   5.043
   31        1.573   3.478   0.000   5.050
   32        1.573   3.477   0.000   5.050
   33        1.573   3.478   0.000   5.051
   34        1.575   3.468   0.000   5.043
   35        1.572   3.482   0.000   5.054
   36        1.573   3.479   0.000   5.052
   37        1.573   3.478   0.000   5.050
   38        1.573   3.479   0.000   5.051
   39        1.574   3.469   0.000   5.044
   40        0.703   1.024   4.076   5.803
   41        0.702   1.029   4.055   5.785
   42        0.703   1.025   4.075   5.803
   43        0.702   1.028   4.056   5.786
   44        0.703   1.025   4.059   5.787
   45        0.703   1.028   4.069   5.800
   46        0.705   1.032   4.077   5.814
   47        0.703   1.025   4.060   5.788
   48        0.192   6.147   8.812  15.151
tot         57.595 169.158  96.630 323.383

 magnetization (x)

[...]

  FORCE on cell =-STRESS in cart. coord.  units (eV):
  Direction    XX          YY          ZZ          XY          YZ          ZX
  Alpha Z  1852.53193  1852.53193  1852.53193
  Ewald  -10684.20064 -9747.92118 -7243.33885   -10.47469    18.05022   116.61997
  Hartree  4063.15853  4800.09326  6681.86523    -5.46654     9.33124    19.34147
  E(xc)   -2145.59499 -2142.30315 -2144.04560    -0.03771     0.00039    -0.97245
  Local     149.16486 -1511.42923 -5836.44533    15.67615   -26.88145  -124.52279
  n-local -1502.61863 -1509.83051 -1484.03197    -0.06989     0.19816     3.96790
  augment  1693.64174  1698.48499  1680.36672     0.12272    -0.12248    -5.21010
  Kinetic  6582.53695  6571.50910  6501.45487     0.20801    -0.47871    -9.32645
  Fock        0.00000     0.00000     0.00000     0.00000     0.00000     0.00000
  Total       8.61975    11.13520     8.35699    -0.04195     0.09737    -0.10245
  in kB      27.12078    35.03527    26.29405    -0.13200     0.30637    -0.32235

 VOLUME and BASIS-vectors are now :
  energy-cutoff  :      500.00
  volume of cell :      509.22
      direct lattice vectors                 reciprocal lattice vectors
     9.109515956  0.006478648 -0.046442580     0.109778850 -0.000077333  0.000682142
     0.003978019  5.651900078  0.000549527    -0.000125929  0.176931739 -0.000018784
    -0.061458039  0.001006298  9.890708564     0.000515482 -0.000010193  0.101108195

  length of vectors
     9.109636647  5.651901505  9.890899555     0.109780996  0.176931785  0.101109510

 FORCES acting on ions
    electron-ion (+dipol)            ewald-force                    non-local-force                 convergence-correction
   -.884E+00 -.258E+03 0.215E+01   0.863E+00 0.258E+03 -.208E+01   0.161E-01 -.516E+00 0.107E-01   0.654E-02 0.170E-01 -.903E-01
   -.327E+00 -.262E+03 -.184E+01   0.304E+00 0.263E+03 0.167E+01   0.302E-01 -.393E+00 0.928E-01   -.189E-02 0.256E-01 0.896E-01
   -.149E+01 -.265E+03 -.719E+00   0.148E+01 0.265E+03 0.497E+00   0.420E-02 -.148E+00 0.115E+00   0.579E-03 -.219E-01 0.103E+00
   0.456E+01 0.262E+03 0.874E+01   -.428E+01 -.263E+03 -.868E+01   -.236E+00 0.479E+00 0.366E-01   -.133E-01 -.303E-01 -.112E+00
   -.166E+01 0.262E+03 -.893E+01   0.144E+01 -.263E+03 0.899E+01   0.149E+00 0.429E+00 -.145E+00   0.156E-01 -.289E-01 0.111E+00
   0.156E+01 0.261E+03 0.262E+02   -.188E+01 -.262E+03 -.253E+02   0.208E+00 0.347E+00 -.632E+00   0.273E-01 0.213E-01 -.227E+00
   -.224E+01 0.262E+03 -.259E+02   0.253E+01 -.262E+03 0.252E+02   -.185E+00 0.419E+00 0.456E+00   -.302E-01 0.116E-01 0.230E+00
   0.693E+02 0.119E+03 -.366E+02   -.567E+02 -.118E+03 0.293E+02   -.132E+02 -.171E+01 0.777E+01   -.448E-01 -.221E-01 -.124E-01
   0.648E+02 0.120E+03 -.461E+02   -.516E+02 -.119E+03 0.395E+02   -.138E+02 -.150E+01 0.717E+01   -.338E-01 0.336E-02 0.171E-01
   0.648E+02 0.116E+03 -.427E+02   -.523E+02 -.114E+03 0.361E+02   -.131E+02 -.208E+01 0.716E+01   0.235E-01 0.120E-02 -.309E-01
   0.537E+02 0.996E+02 -.398E+02   -.406E+02 -.971E+02 0.329E+02   -.135E+02 -.275E+01 0.727E+01   0.634E-01 0.180E-01 0.179E-01
   -.709E+02 -.122E+03 0.433E+02   0.586E+02 0.121E+03 -.363E+02   0.128E+02 0.170E+01 -.754E+01   0.510E-01 -.887E-03 -.756E-02
   -.679E+02 -.118E+03 0.439E+02   0.549E+02 0.117E+03 -.373E+02   0.135E+02 0.185E+01 -.713E+01   0.394E-01 0.360E-01 -.838E-02
   -.621E+02 -.105E+03 0.430E+02   0.487E+02 0.103E+03 -.355E+02   0.135E+02 0.210E+01 -.762E+01   -.927E-01 -.431E-01 0.368E-01
   -.599E+02 -.112E+03 0.420E+02   0.471E+02 0.110E+03 -.350E+02   0.133E+02 0.211E+01 -.757E+01   0.525E-02 0.242E-01 -.276E-01
   -.666E+02 0.124E+03 0.478E+02   0.536E+02 -.123E+03 -.412E+02   0.136E+02 -.142E+01 -.705E+01   0.483E-01 -.253E-01 -.610E-01
   -.705E+02 0.122E+03 0.376E+02   0.580E+02 -.121E+03 -.306E+02   0.132E+02 -.162E+01 -.753E+01   0.314E-01 0.559E-02 0.548E-01
   -.537E+02 0.985E+02 0.398E+02   0.403E+02 -.960E+02 -.330E+02   0.137E+02 -.270E+01 -.708E+01   -.380E-01 -.998E-02 -.694E-01
   -.661E+02 0.117E+03 0.426E+02   0.536E+02 -.115E+03 -.362E+02   0.131E+02 -.197E+01 -.696E+01   -.512E-01 0.304E-01 0.836E-01
   0.721E+02 -.125E+03 -.442E+02   -.600E+02 0.124E+03 0.375E+02   -.127E+02 0.162E+01 0.740E+01   -.491E-01 -.156E-02 -.389E-01
   0.677E+02 -.118E+03 -.449E+02   -.547E+02 0.117E+03 0.384E+02   -.135E+02 0.190E+01 0.694E+01   -.412E-01 0.377E-01 0.566E-01
   0.612E+02 -.105E+03 -.414E+02   -.476E+02 0.103E+03 0.341E+02   -.137E+02 0.183E+01 0.746E+01   0.857E-01 -.476E-01 -.921E-01
   0.609E+02 -.114E+03 -.431E+02   -.480E+02 0.112E+03 0.361E+02   -.134E+02 0.199E+01 0.746E+01   -.121E-02 0.304E-01 0.828E-01
   0.201E+03 0.119E+03 0.572E+02   -.194E+03 -.110E+03 -.513E+02   -.730E+01 -.106E+02 -.648E+01   -.590E-01 0.928E-03 -.662E-01
   0.199E+03 0.116E+03 0.528E+02   -.192E+03 -.106E+03 -.470E+02   -.740E+01 -.108E+02 -.644E+01   -.388E-01 -.392E-01 0.649E-01
   0.173E+03 0.944E+02 0.786E+02   -.165E+03 -.829E+02 -.731E+02   -.886E+01 -.119E+02 -.627E+01   0.706E-01 0.497E-01 -.915E-01
   0.195E+03 0.113E+03 0.640E+02   -.188E+03 -.102E+03 -.593E+02   -.749E+01 -.108E+02 -.562E+01   0.225E-01 -.320E-01 0.110E+00
   -.199E+03 -.115E+03 -.511E+02   0.193E+03 0.106E+03 0.453E+02   0.724E+01 0.108E+02 0.656E+01   0.478E-01 0.260E-01 -.648E-01
   -.202E+03 -.120E+03 -.639E+02   0.196E+03 0.111E+03 0.583E+02   0.729E+01 0.102E+02 0.637E+01   0.563E-01 -.540E-02 0.914E-01
   -.185E+03 -.105E+03 -.325E+02   0.178E+03 0.929E+02 0.271E+02   0.709E+01 0.127E+02 0.467E+01   -.637E-01 0.185E-01 -.133E+00
   -.191E+03 -.107E+03 -.719E+02   0.184E+03 0.969E+02 0.665E+02   0.746E+01 0.109E+02 0.610E+01   -.310E-01 -.368E-01 0.124E+00
   -.199E+03 0.122E+03 -.551E+02   0.193E+03 -.113E+03 0.492E+02   0.758E+01 -.103E+02 0.647E+01   0.439E-01 -.155E-02 -.167E-01
   -.198E+03 0.118E+03 -.551E+02   0.192E+03 -.108E+03 0.493E+02   0.755E+01 -.106E+02 0.641E+01   0.544E-01 -.372E-01 0.180E-01
   -.174E+03 0.946E+02 -.769E+02   0.166E+03 -.832E+02 0.713E+02   0.882E+01 -.118E+02 0.640E+01   -.952E-01 0.452E-01 -.432E-02
   -.196E+03 0.114E+03 -.647E+02   0.190E+03 -.104E+03 0.599E+02   0.747E+01 -.105E+02 0.556E+01   -.350E-03 -.267E-01 -.151E-01
   0.203E+03 -.123E+03 0.637E+02   -.197E+03 0.114E+03 -.583E+02   -.745E+01 0.999E+01 -.622E+01   -.682E-01 0.245E-01 -.493E-01
   0.199E+03 -.118E+03 0.508E+02   -.193E+03 0.109E+03 -.450E+02   -.737E+01 0.105E+02 -.644E+01   -.335E-01 -.275E-02 0.249E-01
   0.191E+03 -.108E+03 0.716E+02   -.184E+03 0.973E+02 -.661E+02   -.756E+01 0.109E+02 -.615E+01   0.104E-01 -.581E-02 -.785E-01
   0.186E+03 -.107E+03 0.304E+02   -.179E+03 0.947E+02 -.249E+02   -.705E+01 0.127E+02 -.470E+01   0.871E-01 -.160E-01 0.919E-01
   -.957E+00 0.413E+02 -.708E+01   0.128E+01 -.407E+02 0.708E+01   0.244E+00 0.297E+00 0.252E+00   -.639E-01 0.282E-02 -.310E-01
   0.325E+01 0.454E+02 -.323E+00   -.321E+01 -.448E+02 0.325E+00   -.409E-02 0.362E+00 0.476E-01   -.280E-01 -.431E-02 0.276E-01
   0.151E+00 0.418E+02 0.786E+01   -.503E+00 -.411E+02 -.780E+01   -.227E+00 0.286E+00 -.231E+00   0.620E-01 -.493E-03 -.374E-01
   -.337E+01 0.462E+02 -.620E+00   0.330E+01 -.455E+02 0.497E+00   -.181E-01 0.317E+00 -.866E-02   0.299E-01 -.827E-03 0.410E-01
   -.849E+00 -.513E+02 0.119E+01   0.140E+01 0.510E+02 -.770E+00   0.403E+00 -.232E-01 0.172E+00   -.480E-01 -.367E-02 -.614E-01
   0.102E+00 -.440E+02 0.577E+00   0.109E+00 0.433E+02 -.824E+00   0.189E+00 -.336E+00 -.182E+00   -.444E-01 0.584E-02 0.637E-01
   0.901E+00 -.438E+02 -.719E+00   -.107E+01 0.431E+02 0.987E+00   -.227E+00 -.339E+00 0.184E+00   0.393E-01 0.687E-02 -.655E-01
   0.135E+01 -.520E+02 -.222E+01   -.186E+01 0.517E+02 0.180E+01   -.406E+00 -.259E-02 -.157E+00   0.522E-01 -.478E-02 0.643E-01
   0.210E+01 -.230E+03 0.234E+01   -.202E+01 0.231E+03 -.222E+01   -.833E-01 -.102E+01 -.105E-01   -.240E-02 -.176E-01 -.106E+00
   0.395E+00 -.113E+01 -.370E+00   -.504E-12 0.909E-12 0.746E-13   -.472E+00 0.103E+01 0.407E+00   0.602E-03 -.240E-01 0.629E-02

 POSITION                                       TOTAL-FORCE (eV/Angst)
      2.27374      3.67704      1.22552         0.002757      0.126499     -0.009684
      2.24162      3.69105      6.16993         0.006698      0.180783      0.002191
      6.79722      3.69226      6.14884         0.002566      0.168392     -0.004650
      2.25188      1.98700      3.70269         0.036635     -0.242757     -0.016936
      2.22789      1.98791      8.63387        -0.044829     -0.249794      0.030930
      6.80635      1.96382      3.69051        -0.081772     -0.257174      0.003471
      6.78224      1.96499      8.60117         0.079158     -0.265077     -0.005091
      1.00395      0.64928      4.56355        -0.621708     -0.438499      0.433938
      1.00918      0.63891      9.50713        -0.721391     -0.406318      0.561055
      5.54530      0.65116      4.56609        -0.583247     -0.367651      0.483869
      5.50407      0.61628      9.52249        -0.319294     -0.241289      0.381591
      3.53041      4.99427      0.36568         0.660130      0.362836     -0.577881
      3.48224      5.03596      5.31242         0.565991      0.303077     -0.515267
      8.12390      5.04137      0.28581         0.059339     -0.003640     -0.091934
      8.06471      5.02596      5.26161         0.518667      0.211967     -0.577252
      3.46724      0.64460      2.83523         0.754965     -0.419893     -0.577764
      3.46571      0.65005      7.77637         0.647509     -0.454963     -0.447726
      8.08080      0.61038      2.76870         0.316594     -0.239471     -0.373894
      8.03750      0.65246      7.72720         0.604320     -0.366584     -0.501498
      1.02356      4.98858      2.08651        -0.688610      0.385266      0.590207
      1.00448      5.03967      7.02725        -0.569600      0.310042      0.523494
      5.53864      5.04542      2.13047        -0.029906     -0.029190      0.065077
      5.53579      5.02421      7.03705        -0.539003      0.210860      0.582176
      1.19572      2.15067      2.01315        -1.161933     -0.855213     -0.639977
      1.16073      2.15769      6.94910        -1.054000     -0.801221     -0.610166
      5.73663      2.10016      2.04049        -0.733001     -0.316224     -0.808252
      5.72411      2.13974      6.94966        -1.102709     -0.702475     -0.741535
      3.33678      3.50835      2.91461         1.076898      0.857714      0.625560
      3.28158      3.51403      7.83752         1.379219      0.997382      0.842152
      7.91567      3.47014      2.94796        -0.077175      0.552707     -0.863766
      7.86805      3.54121      7.79612         0.959857      0.591269      0.824519
      3.33530      2.14620      0.44256         1.182948     -0.892097      0.614935
      3.30929      2.14949      5.38809         1.068163     -0.808413      0.635823
      7.91699      2.10250      0.36022         0.706781     -0.282139      0.797720
      7.85544      2.14131      5.34137         1.137624     -0.723073      0.745017
      1.21391      3.51575      4.49797        -1.411226      1.030570     -0.839758
      1.15977      3.51052      9.42035        -1.104147      0.893616     -0.615437
      5.72909      3.54063      4.50237        -0.961783      0.593602     -0.822584
      5.67775      3.46658      9.34475         0.051972      0.577683      0.872030
      0.00696      0.98162      1.21222         0.507554      0.910539      0.214942
     -0.02902      0.98687      6.16505         0.014097      0.994586      0.076239
      4.53532      0.98530      1.23875        -0.515008      0.918444     -0.208263
      4.50678      0.98733      6.17509        -0.053963      0.996601     -0.091490
     -0.01327      4.65967      3.69971         0.902478     -0.250983      0.530136
     -0.03720      4.68239      8.63667         0.357050     -1.000768     -0.366051
      4.52129      4.68351      3.70622        -0.351610     -0.994068      0.384922
      4.49695      4.66425      8.64051        -0.870353     -0.248936     -0.519201
      6.82687      3.75375      1.20188        -0.003700     -0.316524      0.004061
    total drift:                               -0.075946     -0.128304      0.042573

  FREE ENERGIE OF THE ION-ELECTRON SYSTEM (eV)
  free  energy   TOTEN  =      -365.59539273 eV

  energy  without entropy=     -365.59539273  energy(sigma->0) =     -365.59539273

 writing wavefunctions

 total charge

[...]

 magnetization (x)

# of ion       s       p       d       tot
    1       -0.006  -0.005  -1.732  -1.743
    2       -0.006  -0.005  -1.728  -1.739
    3        0.006   0.005   1.734   1.745
    4       -0.006  -0.005  -1.730  -1.740
    5       -0.006  -0.005  -1.731  -1.742
    6        0.006   0.005   1.738   1.749
    7        0.006   0.005   1.738   1.749
    8       -0.004   0.001   0.000  -0.003
    9       -0.004  -0.003   0.000  -0.007
   10        0.004   0.002   0.000   0.006
   11        0.004   0.003   0.000   0.006
   12       -0.004   0.001   0.000  -0.003
   13       -0.004  -0.002   0.000  -0.006
   14        0.001   0.005   0.000   0.006
   15        0.004   0.002   0.000   0.005
   16       -0.004  -0.003   0.000  -0.007
   17       -0.004   0.001   0.000  -0.003
   18        0.004   0.003   0.000   0.006
   19        0.004   0.002   0.000   0.006
   20       -0.004   0.001   0.000  -0.003
   21       -0.004  -0.002   0.000  -0.006
   22        0.001   0.006   0.000   0.007
   23        0.004   0.001   0.000   0.005
   24       -0.008  -0.023   0.000  -0.031
   25       -0.008  -0.022   0.000  -0.030
   26        0.005   0.021   0.000   0.026
   27        0.008   0.024   0.000   0.032
   28       -0.008  -0.023   0.000  -0.031
   29       -0.008  -0.015   0.000  -0.023
   30        0.008   0.062   0.000   0.070
   31        0.008   0.023   0.000   0.030
   32       -0.008  -0.024   0.000  -0.032
   33       -0.008  -0.022   0.000  -0.031
   34        0.005   0.022   0.000   0.027
   35        0.008   0.025   0.000   0.033
   36       -0.008  -0.016   0.000  -0.024
   37       -0.008  -0.023   0.000  -0.031
   38        0.008   0.023   0.000   0.031
   39        0.008   0.062   0.000   0.070
   40       -0.000  -0.001  -0.021  -0.022
   41       -0.000  -0.000  -0.003  -0.003
   42       -0.000  -0.001  -0.022  -0.023
   43       -0.000   0.000  -0.003  -0.003
   44       -0.000   0.000  -0.014  -0.014
   45       -0.000  -0.000  -0.012  -0.012
   46       -0.000  -0.000  -0.012  -0.012
   47       -0.000   0.000  -0.013  -0.013
   48        0.005   0.000   0.715   0.720
tot         -0.015   0.104  -1.096  -1.007

 BZINTS: Fermi energy:  3.352768;369.000000 electrons
         Band energy:***********;  BLOECHL correction:  0.000000