 vasp.5.4.4.18Apr17-6-g9f103f2a35 (build Jan 25 2019 22:30:10) complex

 executed on             LinuxIFC date 2021.01.27  22:41:40

 INCAR:
 POTCAR:    PAW_PBE Ni_pv 06Sep2000
 POTCAR:    PAW_PBE O 08Apr2002
 POTCAR:    PAW_PBE W 08Apr2002
 POTCAR:    PAW_PBE Ni_pv 06Sep2000
   VRHFIN =Ni:

   TITEL  = PAW_PBE Ni_pv 06Sep2000
   POMASS =   58.690; ZVAL   =   16.000    mass and valenz
   ENMAX  =  367.986; ENMIN  =  275.989 eV

 POTCAR:    PAW_PBE O 08Apr2002
   VRHFIN =O: s2p4

   TITEL  = PAW_PBE O 08Apr2002
   POMASS =   16.000; ZVAL   =    6.000    mass and valenz
   ENMAX  =  400.000; ENMIN  =  300.000 eV

 POTCAR:    PAW_PBE W 08Apr2002
   VRHFIN =W : 6s5d

   TITEL  = PAW_PBE W 08Apr2002
   POMASS =  183.850; ZVAL   =    6.000    mass and valenz
   ENMAX  =  223.057; ENMIN  =  167.293 eV

 Optimization of the real space projectors (new method)

 maximal supplied QI-value         = 18.90
 optimisation between [QCUT,QGAM] = [ 11.34, 22.87] = [ 36.00,146.41] Ry
 Optimized for a Real-space Cutoff    1.35 Angstroem

   l    n(q)    QCUT    max X(q) W(low)/X(q) W(high)/X(q)  e(spline)
   1      9    11.338     2.836    0.21E-04    0.44E-04    0.96E-07
   1      9    11.338     4.023    0.81E-04    0.11E-03    0.22E-06
   2      8    11.338    73.368    0.36E-03    0.40E-03    0.33E-06
   2      8    11.338    69.010    0.37E-03    0.41E-03    0.34E-06
   0      9    11.338    54.797    0.66E-04    0.74E-04    0.73E-07
   0      9    11.338    24.266    0.52E-04    0.65E-04    0.65E-07
 Optimization of the real space projectors (new method)

[...]

   l    n(q)    QCUT    max X(q) W(low)/X(q) W(high)/X(q)  e(spline)
   0      7    11.387    20.381    0.39E-03    0.13E-02    0.15E-06
   0      7    11.387    15.268    0.42E-03    0.14E-02    0.17E-06
   1      6    11.387     5.964    0.41E-03    0.11E-02    0.17E-06
   1      6    11.387     5.382    0.39E-03    0.87E-03    0.15E-06
 Optimization of the real space projectors (new method)

 maximal supplied QI-value         = 13.61
 optimisation between [QCUT,QGAM] = [ 11.43, 22.86] = [ 36.58,146.31] Ry
 Optimized for a Real-space Cutoff    1.56 Angstroem

   l    n(q)    QCUT    max X(q) W(low)/X(q) W(high)/X(q)  e(spline)
   2     10    11.429   130.855    0.22E-03    0.64E-03    0.11E-05
   2     10    11.429   114.007    0.22E-03    0.64E-03    0.11E-05
   0     11    11.429    84.709    0.39E-04    0.67E-04    0.23E-06
   0     11    11.429    49.163    0.35E-04    0.62E-04    0.21E-06
   1     10    11.429    15.765    0.84E-04    0.15E-03    0.24E-06
   1     10    11.429    10.638    0.58E-04    0.12E-03    0.19E-06
  PAW_PBE Ni_pv 06Sep2000               :
  PAW_PBE O 08Apr2002                   :
  PAW_PBE W 08Apr2002                   :

 POSCAR: Ni O4 W
  positions in direct lattice
 exchange correlation table for  LEXCH =        8
   RHO(1)=    0.500       N(1)  =     2000
   RHO(2)=  100.500       N(2)  =     4000

 ion  position               nearest neighbor table
   1  0.250  0.650  0.250-  15 1.99  19 1.99   7 2.03  11 2.03  17 2.03  13 2.03
   2  0.750  0.650  0.250-  16 1.99  20 1.99   8 2.03  12 2.03  18 2.03  14 2.03
   3  0.250  0.350  0.750-  17 1.99  13 1.99   9 2.03   5 2.03  15 2.03  19 2.03
   4  0.750  0.350  0.750-  18 1.99  14 1.99  10 2.03   6 2.03  16 2.03  20 2.03
   5  0.113  0.113  0.926-  21 1.94   3 2.03  23 2.10
   6  0.613  0.113  0.926-  22 1.94   4 2.03  24 2.10
   7  0.387  0.887  0.074-  24 1.94   1 2.03  22 2.10
   8  0.887  0.887  0.074-  23 1.94   2 2.03  21 2.10
   9  0.387  0.113  0.574-  22 1.94   3 2.03  24 2.10
  10  0.887  0.113  0.574-  21 1.94   4 2.03  23 2.10
  11  0.113  0.887  0.426-  23 1.94   1 2.03  21 2.10
  12  0.613  0.887  0.426-  24 1.94   2 2.03  22 2.10
  13  0.133  0.378  0.410-  21 1.85   3 1.99   1 2.03
  14  0.633  0.378  0.410-  22 1.85   4 1.99   2 2.03
  15  0.367  0.622  0.590-  24 1.85   1 1.99   3 2.03
  16  0.867  0.622  0.590-  23 1.85   2 1.99   4 2.03
  17  0.367  0.378  0.090-  22 1.85   3 1.99   1 2.03
  18  0.867  0.378  0.090-  21 1.85   4 1.99   2 2.03
  19  0.133  0.622  0.910-  23 1.85   1 1.99   3 2.03
  20  0.633  0.622  0.910-  24 1.85   2 1.99   4 2.03
  21  0.000  0.173  0.250-  13 1.85  18 1.85   5 1.94  10 1.94  11 2.10   8 2.10  23 3.15  23 3.15

  22  0.500  0.173  0.250-  14 1.85  17 1.85   6 1.94   9 1.94  12 2.10   7 2.10  24 3.15  24 3.15

[...]

  24  0.500  0.827  0.750-  20 1.85  15 1.85  12 1.94   7 1.94   6 2.10   9 2.10  22 3.15  22 3.15

IMPORTANT INFORMATION: All symmetrisations will be switched off!
NOSYMM: (Re-)initialisation of all symmetry stuff for point group C_1.

 KPOINTS: Automatic mesh

Automatic generation of k-mesh.
Space group operators:
 irot       det(A)        alpha          n_x          n_y          n_z        tau_x        tau_y        tau_z
    1     1.000000     0.000000     1.000000     0.000000     0.000000     0.000000     0.000000     0.000000

 Subroutine IBZKPT returns following result:

 Found    132 irreducible k-points:

 Following reciprocal coordinates:
            Coordinates               Weight
  0.000000  0.000000  0.000000      1.000000
  0.250000  0.000000  0.000000      2.000000
  0.500000  0.000000  0.000000      1.000000
  0.000000  0.125000  0.000000      2.000000
  0.250000  0.125000  0.000000      2.000000
  0.500000  0.125000  0.000000      2.000000
 -0.250000  0.125000  0.000000      2.000000
  0.000000  0.250000  0.000000      2.000000
  0.250000  0.250000  0.000000      2.000000
  0.500000  0.250000  0.000000      2.000000
 -0.250000  0.250000  0.000000      2.000000
  0.000000  0.375000  0.000000      2.000000
  0.250000  0.375000  0.000000      2.000000
  0.500000  0.375000  0.000000      2.000000
 -0.250000  0.375000  0.000000      2.000000
  0.000000  0.500000  0.000000      1.000000
  0.250000  0.500000  0.000000      2.000000
  0.500000  0.500000  0.000000      1.000000
  0.000000  0.000000  0.125000      2.000000
  0.250000  0.000000  0.125000      2.000000
  0.500000  0.000000  0.125000      2.000000
 -0.250000  0.000000  0.125000      2.000000
  0.000000  0.125000  0.125000      2.000000
  0.250000  0.125000  0.125000      2.000000
  0.500000  0.125000  0.125000      2.000000
 -0.250000  0.125000  0.125000      2.000000
  0.000000  0.250000  0.125000      2.000000
  0.250000  0.250000  0.125000      2.000000
  0.500000  0.250000  0.125000      2.000000
 -0.250000  0.250000  0.125000      2.000000
  0.000000  0.375000  0.125000      2.000000
  0.250000  0.375000  0.125000      2.000000
  0.500000  0.375000  0.125000      2.000000
 -0.250000  0.375000  0.125000      2.000000
  0.000000  0.500000  0.125000      2.000000
  0.250000  0.500000  0.125000      2.000000
  0.500000  0.500000  0.125000      2.000000
 -0.250000  0.500000  0.125000      2.000000
  0.000000 -0.375000  0.125000      2.000000
  0.250000 -0.375000  0.125000      2.000000
  0.500000 -0.375000  0.125000      2.000000
 -0.250000 -0.375000  0.125000      2.000000
  0.000000 -0.250000  0.125000      2.000000
  0.250000 -0.250000  0.125000      2.000000
  0.500000 -0.250000  0.125000      2.000000
 -0.250000 -0.250000  0.125000      2.000000
  0.000000 -0.125000  0.125000      2.000000
  0.250000 -0.125000  0.125000      2.000000
  0.500000 -0.125000  0.125000      2.000000
 -0.250000 -0.125000  0.125000      2.000000
  0.000000  0.000000  0.250000      2.000000
  0.250000  0.000000  0.250000      2.000000
  0.500000  0.000000  0.250000      2.000000
 -0.250000  0.000000  0.250000      2.000000
  0.000000  0.125000  0.250000      2.000000
  0.250000  0.125000  0.250000      2.000000
  0.500000  0.125000  0.250000      2.000000
 -0.250000  0.125000  0.250000      2.000000
  0.000000  0.250000  0.250000      2.000000
  0.250000  0.250000  0.250000      2.000000
[...]
  0.000000  0.125000  0.500000      2.000000
  0.250000  0.125000  0.500000      2.000000
  0.500000  0.125000  0.500000      2.000000
 -0.250000  0.125000  0.500000      2.000000
  0.000000  0.250000  0.500000      2.000000
  0.250000  0.250000  0.500000      2.000000
  0.500000  0.250000  0.500000      2.000000
 -0.250000  0.250000  0.500000      2.000000
  0.000000  0.375000  0.500000      2.000000
  0.250000  0.375000  0.500000      2.000000
  0.500000  0.375000  0.500000      2.000000
 -0.250000  0.375000  0.500000      2.000000
  0.000000  0.500000  0.500000      1.000000
  0.250000  0.500000  0.500000      2.000000
  0.500000  0.500000  0.500000      1.000000

 Following cartesian coordinates:
            Coordinates               Weight
  0.000000  0.000000  0.000000      1.000000
  0.027480  0.000000  0.000321      2.000000
  0.054961  0.000000  0.000641      1.000000
  0.000000  0.022182  0.000000      2.000000
  0.027480  0.022182  0.000321      2.000000
  0.054961  0.022182  0.000641      2.000000
 -0.027480  0.022182 -0.000321      2.000000
  0.000000  0.044364  0.000000      2.000000
  0.027480  0.044364  0.000321      2.000000
  0.054961  0.044364  0.000641      2.000000
 -0.027480  0.044364 -0.000321      2.000000
  0.000000  0.066545  0.000000      2.000000
  0.027480  0.066545  0.000321      2.000000
  0.054961  0.066545  0.000641      2.000000
 -0.027480  0.066545 -0.000321      2.000000
  0.000000  0.088727  0.000000      1.000000
  0.027480  0.088727  0.000321      2.000000
  0.054961  0.088727  0.000641      1.000000
  0.000000  0.000000  0.025306      2.000000
  0.027480  0.000000  0.025627      2.000000
  0.054961  0.000000  0.025947      2.000000
 -0.027480  0.000000  0.024986      2.000000
  0.000000  0.022182  0.025306      2.000000
  0.027480  0.022182  0.025627      2.000000
  0.054961  0.022182  0.025947      2.000000
 -0.027480  0.022182  0.024986      2.000000
  0.000000  0.044364  0.025306      2.000000
  0.027480  0.044364  0.025627      2.000000
  0.054961  0.044364  0.025947      2.000000
 -0.027480  0.044364  0.024986      2.000000
  0.000000  0.066545  0.025306      2.000000
  0.027480  0.066545  0.025627      2.000000
  0.054961  0.066545  0.025947      2.000000
 -0.027480  0.066545  0.024986      2.000000
  0.000000  0.088727  0.025306      2.000000
  0.027480  0.088727  0.025627      2.000000
  0.054961  0.088727  0.025947      2.000000
 -0.027480  0.088727  0.024986      2.000000
  0.000000 -0.066545  0.025306      2.000000
  0.027480 -0.066545  0.025627      2.000000
  0.054961 -0.066545  0.025947      2.000000
 -0.027480 -0.066545  0.024986      2.000000
  0.000000 -0.044364  0.025306      2.000000
  0.027480 -0.044364  0.025627      2.000000
  0.054961 -0.044364  0.025947      2.000000
 -0.027480 -0.044364  0.024986      2.000000
  0.000000 -0.022182  0.025306      2.000000
  0.027480 -0.022182  0.025627      2.000000
  0.054961 -0.022182  0.025947      2.000000
 -0.027480 -0.022182  0.024986      2.000000
  0.000000  0.000000  0.050612      2.000000
  0.027480  0.000000  0.050933      2.000000
  0.054961  0.000000  0.051253      2.000000
 -0.027480  0.000000  0.050292      2.000000
  0.000000  0.022182  0.050612      2.000000
  0.027480  0.022182  0.050933      2.000000
  0.054961  0.022182  0.051253      2.000000
 -0.027480  0.022182  0.050292      2.000000
  0.000000  0.044364  0.050612      2.000000
[...]
  Ewald energy   TEWEN  =    -13734.27653964
  -Hartree energ DENC   =     -7585.38886640
  -exchange      EXHF   =         0.00000000
  -V(xc)+E(xc)   XCENC  =       620.50157892
  PAW double counting   =     25725.34869490   -26102.59784489
  entropy T*S    EENTRO =         0.00000000
  eigenvalues    EBANDS =     -1784.26937276
  atomic energy  EATOM  =     21740.35362048
  Solvation  Ediel_sol  =         0.00000000
  free energy    TOTEN  =      -191.95346797 eV

  energy without entropy =     -191.95346797  energy(sigma->0) =     -191.95346797

 average (electrostatic) potential at core
  the test charge radii are     0.8614  0.7215  1.1823
  (the norm of the test charge is              1.0000)
       1 -82.9861       2 -82.9879       3 -82.9881       4 -82.9865       5 -71.0049
       6 -71.0050       7 -71.0049       8 -71.0050       9 -71.0049      10 -71.0050
      11 -71.0049      12 -71.0050      13 -71.2924      14 -71.2925      15 -71.2923
      16 -71.2925      17 -71.2924      18 -71.2925      19 -71.2923      20 -71.2925
      21 -43.1966      22 -43.1966      23 -43.1965      24 -43.1965

 E-fermi :   4.4145     XC(G=0): -11.6097     alpha+bet :-10.9469

[...]

 k-point     1 :       0.0000    0.0000    0.0000
  band No.  band energies     occupation
      1     -60.2922      1.00000
      2     -60.2921      1.00000
      3     -60.2836      1.00000
      4     -60.2834      1.00000
      5     -60.2813      1.00000
      6     -60.2812      1.00000
      7     -60.2792      1.00000
      8     -60.2788      1.00000
      9     -60.2564      1.00000
     10     -60.2562      1.00000
     11     -60.2526      1.00000
     12     -60.2523      1.00000
     13     -15.5732      1.00000
     14     -15.0340      1.00000
     15     -14.6395      1.00000
     16     -14.3501      1.00000
     17     -14.2647      1.00000
     18     -14.1886      1.00000
     19     -14.1717      1.00000
     20     -14.0360      1.00000
     21     -13.9876      1.00000
     22     -13.9375      1.00000
     23     -13.9045      1.00000
     24     -13.7710      1.00000
     25     -13.7628      1.00000
     26     -13.6512      1.00000
     27     -13.5455      1.00000
     28     -13.4357      1.00000
     29      -3.2510      1.00000
     30      -2.9267      1.00000
     31      -2.8031      1.00000
     32      -2.6492      1.00000
     33      -2.5148      1.00000
     34      -2.4889      1.00000
     35      -2.3955      1.00000
     36      -2.3163      1.00000
     37      -2.2579      1.00000
     38      -2.0235      1.00000
     39      -1.9367      1.00000
     40      -1.7578      1.00000
     41      -1.6060      1.00000
     42      -1.6017      1.00000
     43      -1.5423      1.00000
     44      -1.4282      1.00000
     45      -1.4154      1.00000
     46      -1.2606      1.00000
     47      -1.1437      1.00000
     48      -0.8260      1.00000
     49      -0.7231      1.00000
     50      -0.6936      1.00000
     51      -0.2737      1.00000
     52      -0.1938      1.00000
     53      -0.1019      1.00000
     54      -0.0414      1.00000
     55       0.1088      1.00000
     56       0.2622      1.00000
     57       0.2773      1.00000
     58       0.3550      1.00000
     59       0.3884      1.00000
     60       0.4041      1.00000
[...]
    106       7.2798      0.00000
    107       7.3458      0.00000
    108       7.4292      0.00000
    109       9.7064      0.00000
    110      10.3798      0.00000
    111      10.3859      0.00000
    112      10.7143      0.00000
    113      11.0301      0.00000
    114      11.0723      0.00000
    115      11.2187      0.00000
    116      11.3945      0.00000
    117      11.8189      0.00000
    118      12.1563      0.00000
    119      12.4033      0.00000
    120      14.3355      0.00000

[...]

 spin component 2

[...]

 k-point   132 :       0.5000    0.5000    0.5000
  band No.  band energies     occupation
      1     -58.4118      1.00000
      2     -58.4116      1.00000
      3     -58.4106      1.00000
      4     -58.4102      1.00000
      5     -58.4024      1.00000
      6     -58.4021      1.00000
      7     -58.4010      1.00000
      8     -58.4005      1.00000
      9     -58.3943      1.00000
     10     -58.3941      1.00000
     11     -58.3931      1.00000
     12     -58.3927      1.00000
     13     -14.5324      1.00000
     14     -14.5324      1.00000
     15     -14.3973      1.00000
     16     -14.3973      1.00000
     17     -14.2486      1.00000
     18     -14.2486      1.00000
     19     -14.1906      1.00000
     20     -14.1905      1.00000
     21     -13.8141      1.00000
     22     -13.8141      1.00000
     23     -13.7985      1.00000
     24     -13.7984      1.00000
     25     -13.5618      1.00000
     26     -13.5618      1.00000
     27     -13.4284      1.00000
     28     -13.4284      1.00000
     29      -2.9002      1.00000
     30      -2.9002      1.00000
     31      -2.5697      1.00000
     32      -2.5697      1.00000
     33      -2.1788      1.00000
     34      -2.1788      1.00000
     35      -1.9729      1.00000
     36      -1.9728      1.00000
     37      -1.9146      1.00000
     38      -1.9146      1.00000
     39      -1.7951      1.00000
     40      -1.7951      1.00000
     41      -1.0537      1.00000
     42      -1.0536      1.00000
     43      -0.8822      1.00000
     44      -0.8821      1.00000
     45      -0.6174      1.00000
     46      -0.6174      1.00000
     47      -0.6015      1.00000
     48      -0.6015      1.00000
     49      -0.3025      1.00000
     50      -0.3025      1.00000
     51      -0.2238      1.00000
     52      -0.2238      1.00000
     53      -0.1286      1.00000
     54      -0.1285      1.00000
     55       0.4171      1.00000
     56       0.4171      1.00000
     57       0.8205      1.00000
     58       0.8206      1.00000
     59       0.8937      1.00000
     60       0.8939      1.00000
[...]
    106       7.2999      0.00000
    107       7.4038      0.00000
    108       7.4039      0.00000
    109       9.9447      0.00000
    110       9.9447      0.00000
    111      10.6520      0.00000
    112      10.6520      0.00000
    113      11.3421      0.00000
    114      11.3421      0.00000
    115      11.7878      0.00000
    116      11.7878      0.00000
    117      13.5317      0.00000
    118      13.5318      0.00000
    119      14.0777      0.00000
    120      14.0941      0.00000

 soft charge-density along one line, spin component           1
         0         1         2         3         4         5         6         7         8         9
 total charge-density along one line

 soft charge-density along one line, spin component           2
         0         1         2         3         4         5         6         7         8         9
 total charge-density along one line

------------------------ aborting loop because EDIFF is reached ----------------------------------------

 total charge

# of ion       s       p       d       tot
    1        0.214   6.200   7.845  14.258
    2        0.214   6.200   7.845  14.259
    3        0.214   6.200   7.845  14.259
    4        0.214   6.200   7.845  14.259
    5        1.569   3.476   0.000   5.045
    6        1.569   3.476   0.000   5.045
    7        1.569   3.476   0.000   5.045
    8        1.569   3.476   0.000   5.045
    9        1.569   3.476   0.000   5.045
   10        1.569   3.476   0.000   5.045
   11        1.569   3.476   0.000   5.045
   12        1.569   3.476   0.000   5.045
   13        1.574   3.460   0.000   5.034
   14        1.574   3.460   0.000   5.034
   15        1.574   3.460   0.000   5.034
   16        1.574   3.460   0.000   5.034
   17        1.574   3.460   0.000   5.034
   18        1.574   3.460   0.000   5.034
   19        1.574   3.460   0.000   5.034
   20        1.574   3.460   0.000   5.034
   21        0.697   1.017   4.088   5.802
   22        0.697   1.017   4.088   5.802
   23        0.697   1.017   4.088   5.802
   24        0.697   1.017   4.088   5.802
tot         28.784  84.358  47.733 160.875

 magnetization (x)

[...]

  FORCE on cell =-STRESS in cart. coord.  units (eV):
  Direction    XX          YY          ZZ          XY          YZ          ZX
  Alpha Z   928.37526   928.37526   928.37526
  Ewald   -5321.62645 -4861.02062 -3551.67070     0.00000     0.00001    48.22594
  Hartree  1961.67539  2315.55290  3307.88372     0.00028    -0.00005     4.79845
  E(xc)   -1063.89675 -1062.37846 -1063.16407    -0.00001     0.00000    -0.46091
  Local     112.97250  -692.62119 -2969.96490    -0.00062     0.00006   -50.90026
  n-local  -747.10013  -750.95352  -740.04741     0.00003    -0.00006     0.97518
  augment   842.56189   843.23595   839.34462    -0.00008     0.00016     0.28424
  Kinetic  3289.31814  3283.67713  3253.47018    -0.00006     0.00008    -1.85587
  Fock        0.00000     0.00000     0.00000     0.00000     0.00000     0.00000
  Total       2.27985     3.86745     4.22670    -0.00045     0.00021     1.06677
  in kB      14.42457    24.46929    26.74224    -0.00285     0.00133     6.74943

 VOLUME and BASIS-vectors are now :
  energy-cutoff  :      500.00
  volume of cell :      253.23
      direct lattice vectors                 reciprocal lattice vectors
     9.097361565  0.000000000  0.000000000     0.109921980  0.000000000  0.001282083
     0.000000000  5.635251999  0.000000000     0.000000000  0.177454353  0.000000000
    -0.057612598  0.000000000  4.939531047     0.000000000  0.000000000  0.202448368

  length of vectors
     9.097361565  5.635251999  4.939867020     0.109929457  0.177454353  0.202448368

 FORCES acting on ions
    electron-ion (+dipol)            ewald-force                    non-local-force                 convergence-correction
   0.211E-03 -.263E+03 -.121E-03   -.118E-03 0.264E+03 -.292E-05   0.369E-04 -.739E+00 -.169E-04   -.137E-03 0.159E-02 0.112E-03
   0.157E-04 -.263E+03 -.133E-03   0.499E-04 0.264E+03 0.530E-05   0.292E-04 -.738E+00 -.188E-04   -.897E-04 -.413E-02 0.970E-04
   0.170E-03 0.263E+03 0.151E-03   -.149E-03 -.264E+03 -.327E-04   -.415E-04 0.739E+00 0.338E-05   0.277E-04 0.743E-02 -.919E-04
   -.799E-04 0.263E+03 0.154E-03   0.193E-04 -.264E+03 -.245E-04   -.442E-04 0.739E+00 0.111E-04   0.109E-03 0.730E-03 -.105E-03
   0.644E+02 0.116E+03 -.416E+02   -.517E+02 -.115E+03 0.351E+02   -.129E+02 -.166E+01 0.666E+01   0.726E-02 0.261E-02 -.137E-02
   0.644E+02 0.116E+03 -.415E+02   -.517E+02 -.115E+03 0.351E+02   -.129E+02 -.166E+01 0.666E+01   0.833E-02 0.695E-02 -.475E-02
   -.644E+02 -.116E+03 0.415E+02   0.517E+02 0.115E+03 -.351E+02   0.129E+02 0.166E+01 -.666E+01   -.128E-01 -.930E-02 0.619E-02
   -.644E+02 -.116E+03 0.416E+02   0.517E+02 0.115E+03 -.351E+02   0.129E+02 0.166E+01 -.666E+01   -.476E-02 -.389E-02 0.220E-02
   -.644E+02 0.116E+03 0.416E+02   0.517E+02 -.115E+03 -.351E+02   0.129E+02 -.166E+01 -.666E+01   -.732E-02 0.263E-02 0.135E-02
   -.644E+02 0.116E+03 0.415E+02   0.517E+02 -.115E+03 -.351E+02   0.129E+02 -.166E+01 -.666E+01   -.834E-02 0.696E-02 0.475E-02
   0.644E+02 -.116E+03 -.415E+02   -.517E+02 0.115E+03 0.351E+02   -.129E+02 0.166E+01 0.666E+01   0.128E-01 -.931E-02 -.618E-02
   0.644E+02 -.116E+03 -.416E+02   -.517E+02 0.115E+03 0.351E+02   -.129E+02 0.166E+01 0.666E+01   0.482E-02 -.392E-02 -.220E-02
   0.196E+03 0.117E+03 0.596E+02   -.190E+03 -.107E+03 -.540E+02   -.643E+01 -.100E+02 -.587E+01   0.100E-01 0.895E-02 -.184E-02
   0.196E+03 0.117E+03 0.596E+02   -.190E+03 -.107E+03 -.540E+02   -.643E+01 -.100E+02 -.587E+01   0.703E-02 0.284E-02 0.558E-02
   -.196E+03 -.117E+03 -.596E+02   0.190E+03 0.107E+03 0.540E+02   0.643E+01 0.100E+02 0.587E+01   -.106E-01 -.137E-02 -.834E-02
   -.196E+03 -.117E+03 -.596E+02   0.190E+03 0.107E+03 0.540E+02   0.643E+01 0.100E+02 0.587E+01   -.667E-02 -.648E-02 -.224E-03
   -.196E+03 0.117E+03 -.596E+02   0.190E+03 -.107E+03 0.540E+02   0.643E+01 -.100E+02 0.587E+01   -.100E-01 0.898E-02 0.188E-02
   -.196E+03 0.117E+03 -.596E+02   0.190E+03 -.107E+03 0.540E+02   0.643E+01 -.100E+02 0.587E+01   -.701E-02 0.286E-02 -.555E-02
   0.196E+03 -.117E+03 0.596E+02   -.190E+03 0.107E+03 -.540E+02   -.643E+01 0.100E+02 -.587E+01   0.106E-01 -.140E-02 0.830E-02
   0.196E+03 -.117E+03 0.596E+02   -.190E+03 0.107E+03 -.540E+02   -.643E+01 0.100E+02 -.587E+01   0.668E-02 -.650E-02 0.197E-03
   -.187E-02 0.465E+02 0.396E-03   -.221E-04 -.460E+02 -.298E-05   0.107E-03 0.614E-01 -.166E-04   0.181E-02 0.151E-02 -.274E-03
   0.191E-02 0.465E+02 -.455E-03   -.352E-04 -.460E+02 0.125E-05   -.112E-03 0.614E-01 0.398E-04   -.181E-02 0.151E-02 0.348E-03
   -.241E-02 -.465E+02 -.378E-03   -.900E-05 0.460E+02 -.145E-04   0.164E-03 -.614E-01 -.572E-06   0.239E-02 -.185E-02 0.290E-03
   0.243E-02 -.465E+02 0.457E-03   -.221E-04 0.460E+02 -.103E-04   -.165E-03 -.614E-01 -.209E-04   -.239E-02 -.186E-02 -.358E-03
   0.153E-03 -.493E-02 0.481E-05   0.441E-12 -.121E-12 0.161E-13   -.714E-04 -.654E-03 -.313E-04   -.946E-04 0.553E-02 0.210E-04

 POSITION                                       TOTAL-FORCE (eV/Angst)
      2.25994      3.66429      1.23488        -0.000007      0.023101     -0.000028
      6.80862      3.66429      1.23488         0.000006      0.023274     -0.000049
      2.23113      1.97096      3.70465         0.000008     -0.023184      0.000030
      6.77981      1.97096      3.70465         0.000004     -0.023142      0.000036
      0.97580      0.63776      4.57359        -0.302212     -0.147308      0.255749
      5.52448      0.63776      4.57359        -0.301621     -0.147032      0.255499
      3.51526      4.99749      0.36594         0.302103      0.147168     -0.255768
      8.06394      4.99749      0.36594         0.301918      0.147428     -0.255741
      3.48646      0.63776      2.83571         0.302224     -0.147317     -0.255737
      8.03514      0.63776      2.83571         0.301630     -0.147038     -0.255490
      1.00461      4.99749      2.10383        -0.302111      0.147176      0.255757
      5.55329      4.99749      2.10383        -0.301936      0.147449      0.255733
      1.18504      2.13291      2.02451        -0.473226     -0.322992     -0.303364
      5.73372      2.13291      2.02451        -0.472639     -0.323035     -0.302816
      3.30602      3.50234      2.91502         0.473151      0.323153      0.303159
      7.85470      3.50234      2.91502         0.472762      0.322634      0.303395
      3.33483      2.13291      0.44526         0.473225     -0.322994      0.303374
      7.88351      2.13291      0.44526         0.472638     -0.323040      0.302828
      1.15624      3.50234      4.49428        -0.473145      0.323155     -0.303165
      5.70492      3.50234      4.49428        -0.472754      0.322632     -0.303405
     -0.01440      0.97369      1.23488         0.000029      0.504071      0.000103
      4.53428      0.97369      1.23488        -0.000044      0.504069     -0.000066
     -0.04321      4.66156      3.70465         0.000145     -0.504114     -0.000103
      4.50547      4.66156      3.70465        -0.000147     -0.504114      0.000069
    total drift:                               -0.000013     -0.000050     -0.000005

  FREE ENERGIE OF THE ION-ELECTRON SYSTEM (eV)
  free  energy   TOTEN  =      -191.95346797 eV

  energy  without entropy=     -191.95346797  energy(sigma->0) =     -191.95346797

 writing wavefunctions

 total charge

[...]

 magnetization (x)

# of ion       s       p       d       tot
    1        0.004   0.003   1.499   1.506
    2        0.004   0.003   1.499   1.506
    3        0.004   0.003   1.499   1.506
    4        0.004   0.003   1.499   1.506
    5        0.007   0.060   0.000   0.067
    6        0.007   0.060   0.000   0.067
    7        0.007   0.060   0.000   0.067
    8        0.007   0.060   0.000   0.067
    9        0.007   0.060   0.000   0.067
   10        0.007   0.060   0.000   0.067
   11        0.007   0.060   0.000   0.067
   12        0.007   0.060   0.000   0.067
   13        0.012   0.091   0.000   0.103
   14        0.012   0.091   0.000   0.103
   15        0.012   0.091   0.000   0.103
   16        0.012   0.091   0.000   0.103
   17        0.012   0.091   0.000   0.103
   18        0.012   0.091   0.000   0.103
   19        0.012   0.091   0.000   0.103
   20        0.012   0.091   0.000   0.103
   21        0.006   0.010   0.096   0.112
   22        0.006   0.010   0.096   0.112
   23        0.006   0.010   0.096   0.112
   24        0.006   0.010   0.096   0.112
tot          0.187   1.260   6.381   7.828

 BZINTS: Fermi energy:  4.414454;184.000000 electrons
         Band energy:***********;  BLOECHL correction:  0.000000