 vasp.5.4.4.18Apr17-6-g9f103f2a35 (build Jan 25 2019 22:30:10) complex

 executed on             LinuxIFC date 2021.07.02  13:29:34

 INCAR:
 POTCAR:    PAW_PBE Ni_pv 06Sep2000
 POTCAR:    PAW_PBE O 08Apr2002
 POTCAR:    PAW_PBE W 08Apr2002
 POTCAR:    PAW_PBE Ni_pv 06Sep2000
   VRHFIN =Ni:

   TITEL  = PAW_PBE Ni_pv 06Sep2000
   POMASS =   58.690; ZVAL   =   16.000    mass and valenz
   ENMAX  =  367.986; ENMIN  =  275.989 eV

 POTCAR:    PAW_PBE O 08Apr2002
   VRHFIN =O: s2p4

   TITEL  = PAW_PBE O 08Apr2002
   POMASS =   16.000; ZVAL   =    6.000    mass and valenz
   ENMAX  =  400.000; ENMIN  =  300.000 eV

 POTCAR:    PAW_PBE W 08Apr2002
   VRHFIN =W : 6s5d

   TITEL  = PAW_PBE W 08Apr2002
   POMASS =  183.850; ZVAL   =    6.000    mass and valenz
   ENMAX  =  223.057; ENMIN  =  167.293 eV

 Optimization of the real space projectors (new method)

 maximal supplied QI-value         = 18.90
 optimisation between [QCUT,QGAM] = [ 11.34, 22.87] = [ 36.00,146.41] Ry
 Optimized for a Real-space Cutoff    1.35 Angstroem

   l    n(q)    QCUT    max X(q) W(low)/X(q) W(high)/X(q)  e(spline)
   1      9    11.338     2.836    0.21E-04    0.44E-04    0.96E-07
   1      9    11.338     4.023    0.81E-04    0.11E-03    0.22E-06
   2      8    11.338    73.368    0.36E-03    0.40E-03    0.33E-06
   2      8    11.338    69.010    0.37E-03    0.41E-03    0.34E-06
   0      9    11.338    54.797    0.66E-04    0.74E-04    0.73E-07
   0      9    11.338    24.266    0.52E-04    0.65E-04    0.65E-07
 Optimization of the real space projectors (new method)

[...]

   l    n(q)    QCUT    max X(q) W(low)/X(q) W(high)/X(q)  e(spline)
   0      7    11.387    20.381    0.39E-03    0.13E-02    0.15E-06
   0      7    11.387    15.268    0.42E-03    0.14E-02    0.17E-06
   1      6    11.387     5.964    0.41E-03    0.11E-02    0.17E-06
   1      6    11.387     5.382    0.39E-03    0.87E-03    0.15E-06
 Optimization of the real space projectors (new method)

 maximal supplied QI-value         = 13.61
 optimisation between [QCUT,QGAM] = [ 11.43, 22.86] = [ 36.58,146.31] Ry
 Optimized for a Real-space Cutoff    1.56 Angstroem

   l    n(q)    QCUT    max X(q) W(low)/X(q) W(high)/X(q)  e(spline)
   2     10    11.429   130.855    0.22E-03    0.64E-03    0.11E-05
   2     10    11.429   114.007    0.22E-03    0.64E-03    0.11E-05
   0     11    11.429    84.709    0.39E-04    0.67E-04    0.23E-06
   0     11    11.429    49.163    0.35E-04    0.62E-04    0.21E-06
   1     10    11.429    15.765    0.84E-04    0.15E-03    0.24E-06
   1     10    11.429    10.638    0.58E-04    0.12E-03    0.19E-06
  PAW_PBE Ni_pv 06Sep2000               :
  PAW_PBE O 08Apr2002                   :
  PAW_PBE W 08Apr2002                   :

 POSCAR: Ni O4 W
  positions in direct lattice
  velocities in cartesian coordinates
 exchange correlation table for  LEXCH =        8
   RHO(1)=    0.500       N(1)  =     2000
   RHO(2)=  100.500       N(2)  =     4000

 ion  position               nearest neighbor table
   1  0.250  0.653  0.250-  19 2.03  15 2.03   7 2.06  11 2.06  13 2.07  17 2.07
   2  0.750  0.653  0.250-  20 2.03  16 2.03  12 2.06   8 2.06  14 2.07  18 2.07
   3  0.250  0.347  0.750-  13 2.03  17 2.03   9 2.06   5 2.06  15 2.07  19 2.07
   4  0.750  0.347  0.750-  14 2.03  18 2.03  10 2.06   6 2.06  20 2.07  16 2.07
   5  0.111  0.110  0.929-  21 1.93   3 2.06  23 2.12
   6  0.611  0.110  0.929-  22 1.93   4 2.06  24 2.12
   7  0.389  0.890  0.071-  24 1.93   1 2.06  22 2.12
   8  0.889  0.890  0.071-  23 1.93   2 2.06  21 2.12
   9  0.389  0.110  0.571-  22 1.93   3 2.06  24 2.12
  10  0.889  0.110  0.571-  21 1.93   4 2.06  23 2.12
  11  0.111  0.890  0.429-  23 1.93   1 2.06  21 2.12
  12  0.611  0.890  0.429-  24 1.93   2 2.06  22 2.12
  13  0.131  0.378  0.406-  21 1.83   3 2.03   1 2.07
  14  0.631  0.378  0.406-  22 1.83   4 2.03   2 2.07
  15  0.369  0.622  0.594-  24 1.83   1 2.03   3 2.07
  16  0.869  0.622  0.594-  23 1.83   2 2.03   4 2.07
  17  0.369  0.378  0.094-  22 1.83   3 2.03   1 2.07
  18  0.869  0.378  0.094-  21 1.83   4 2.03   2 2.07
  19  0.131  0.622  0.906-  23 1.83   1 2.03   3 2.07
  20  0.631  0.622  0.906-  24 1.83   2 2.03   4 2.07
  21  1.000  0.177  0.250-  18 1.83  13 1.83  10 1.93   5 1.93  11 2.12   8 2.12  23 3.20  23 3.20

  22  0.500  0.177  0.250-  17 1.83  14 1.83   6 1.93   9 1.93   7 2.12  12 2.12  24 3.20  24 3.20

[...]

  24  0.500  0.823  0.750-  15 1.83  20 1.83  12 1.93   7 1.93   9 2.12   6 2.12  22 3.20  22 3.20

IMPORTANT INFORMATION: All symmetrisations will be switched off!
NOSYMM: (Re-)initialisation of all symmetry stuff for point group C_1.

 KPOINTS: k-points for high-symmetry
  interpolating k-points between supplied coordinates
  k-points in reciprocal lattice
Space group operators:
 irot       det(A)        alpha          n_x          n_y          n_z        tau_x        tau_y        tau_z
    1     1.000000     0.000000     1.000000     0.000000     0.000000     0.000000     0.000000     0.000000

 SYSTEM =  NiWO4
 POSCAR =  Ni O4 W

 Startparameter for this run:
   NWRITE =      2    write-flag & timer
   PREC   = normal    normal or accurate (medium, high low for compatibility)
   ISTART =      0    job   : 0-new  1-cont  2-samecut
   ICHARG =      2    charge: 1-file 2-atom 10-const
   ISPIN  =      2    spin polarized calculation?
   LNONCOLLINEAR =      F non collinear calculations
   LSORBIT =      F    spin-orbit coupling
   INIWAV =      1    electr: 0-lowe 1-rand  2-diag
   LASPH  =      F    aspherical Exc in radial PAW
   METAGGA=      F    non-selfconsistent MetaGGA calc.

 Electronic Relaxation 1
   ENCUT  =  500.0 eV  36.75 Ry    6.06 a.u.  16.74 10.40  9.03*2*pi/ulx,y,z
   ENINI  =  500.0     initial cutoff
   ENAUG  =  703.4 eV  augmentation charge cutoff
   NELM   =    400;   NELMIN=  2; NELMDL= -5     # of ELM steps
   EDIFF  = 0.1E-04   stopping-criterion for ELM
   LREAL  =      T    real-space projection
   NLSPLINE    = F    spline interpolate recip. space projectors
   LCOMPAT=      F    compatible to vasp.4.4
   GGA_COMPAT  = T    GGA compatible to vasp.4.4-vasp.4.6
   LMAXPAW     = -100 max onsite density
   LMAXMIX     =    4 max onsite mixed and CHGCAR
   VOSKOWN=      0    Vosko Wilk Nusair interpolation
   ROPT   =   -0.00050  -0.00050  -0.00050
 Ionic relaxation
   EDIFFG = 0.1E-03   stopping-criterion for IOM
   NSW    =      0    number of steps for IOM
   NBLOCK =      1;   KBLOCK =      1    inner block; outer block
   IBRION =     -1    ionic relax: 0-MD 1-quasi-New 2-CG
   NFREE  =      0    steps in history (QN), initial steepest desc. (CG)
   ISIF   =      2    stress and relaxation
   IWAVPR =     10    prediction:  0-non 1-charg 2-wave 3-comb
   ISYM   =      0    0-nonsym 1-usesym 2-fastsym
   LCORR  =      T    Harris-Foulkes like correction to forces

   POTIM  = 0.5000    time-step for ionic-motion
   TEIN   =    0.0    initial temperature
   TEBEG  =    0.0;   TEEND  =   0.0 temperature during run
   SMASS  =  -3.00    Nose mass-parameter (am)
   estimated Nose-frequenzy (Omega)   =  0.10E-29 period in steps =****** mass=  -0.193E-26a.u.
   SCALEE = 1.0000    scale energy and forces
   NPACO  =    256;   APACO  = 16.0  distance and # of slots for P.C.
   PSTRESS=    0.0 pullay stress

  Mass of Ions in am
   POMASS =  58.69 16.00183.85
  Ionic Valenz
   ZVAL   =  16.00  6.00  6.00
  Atomic Wigner-Seitz radii
  virtual crystal weights
   VCA    =   1.00  1.00  1.00
   NELECT =     184.0000    total number of electrons
   NUPDOWN=      -1.0000    fix difference up-down

 DOS related values:
   EMIN   =  10.00;   EMAX   =-10.00  energy-range for DOS
   EFERMI =   0.00
   ISMEAR =     0;   SIGMA  =   0.10  broadening in eV -4-tet -1-fermi 0-gaus

 Electronic relaxation 2 (details)
   IALGO  =     38    algorithm
   LDIAG  =      T    sub-space diagonalisation (order eigenvalues)
   LSUBROT=      F    optimize rotation matrix (better conditioning)
   TURBO    =      0    0=normal 1=particle mesh
   IRESTART =      0    0=no restart 2=restart with 2 vectors
   NREBOOT  =      0    no. of reboots
   NMIN     =      0    reboot dimension
   EREF     =   0.00    reference energy to select bands
   IMIX   =      4    mixing-type and parameters
     AMIX     =   0.40;   BMIX     =  1.00
     AMIX_MAG =   1.60;   BMIX_MAG =  1.00
     AMIN     =   0.10
     WC   =   100.;   INIMIX=   1;  MIXPRE=   1;  MAXMIX= -45

 Intra band minimization:
   WEIMIN = 0.0000     energy-eigenvalue tresh-hold
   EBREAK =  0.21E-07  absolut break condition
   DEPER  =   0.30     relativ break condition

   TIME   =   0.40     timestep for ELM

  volume/ion in A,a.u.               =      10.82        73.00
  Fermi-wavevector in a.u.,A,eV,Ry     =   1.459590  2.758225 28.985894  2.130403
  Thomas-Fermi vector in A             =   2.576139

 Write flags
   LWAVE        =      T    write WAVECAR
   LDOWNSAMPLE  =      F    k-point downsampling of WAVECAR
   LCHARG       =      T    write CHGCAR
   LVTOT        =      F    write LOCPOT, total local potential
   LVHAR        =      F    write LOCPOT, Hartree potential only
   LELF         =      F    write electronic localiz. function (ELF)
   LORBIT       =     11    0 simple, 1 ext, 2 COOP (PROOUT), +10 PAW based schemes

 Dipole corrections
   LMONO  =      F    monopole corrections only (constant potential shift)
   LDIPOL =      F    correct potential (dipole corrections)
   IDIPOL =      0    1-x, 2-y, 3-z, 4-all directions
   EPSILON=  1.0000000 bulk dielectric constant

 LDA+U is selected, type is set to LDAUTYPE =  2
   angular momentum for each species LDAUL =     2   -1   -1
   U (eV)           for each species LDAUU =   6.0  0.0  0.0
   J (eV)           for each species LDAUJ =   0.0  0.0  0.0
 Exchange correlation treatment:
   GGA     =    PE    GGA type
   VOSKOWN=      0    Vosko Wilk Nusair interpolation
   LHFCALC =     F    Hartree Fock is set to
   LHFONE  =     F    Hartree Fock one center treatment
   AEXX    =    0.0000 exact exchange contribution

 Linear response parameters
   LEPSILON=     F    determine dielectric tensor
   LRPA    =     F    only Hartree local field effects (RPA)
   LNABLA  =     F    use nabla operator in PAW spheres
   LVEL    =     F    velocity operator in full k-point grid
   LINTERFAST=   F  fast interpolation
   KINTER  =     0    interpolate to denser k-point grid
   CSHIFT  =0.1000    complex shift for real part using Kramers Kronig
   OMEGAMAX=  -1.0    maximum frequency
   DEG_THRESHOLD= 0.2000000E-02 threshold for treating states as degnerate
   RTIME   =   -0.100 relaxation time in fs
  (WPLASMAI=    0.000 imaginary part of plasma frequency in eV, 0.658/RTIME)
   DFIELD  = 0.0000000 0.0000000 0.0000000 field for delta impulse in time

 Orbital magnetization related:
   ORBITALMAG=     F  switch on orbital magnetization
   LCHIMAG   =     F  perturbation theory with respect to B field
   DQ        =  0.001000  dq finite difference perturbation B field
   LLRAUG    =     F  two centre corrections for induced B field

 Static calculation
 charge density and potential will be updated during run
 spin polarized calculation
[...]

 Free energy of the ion-electron system (eV)
  alpha Z        PSCENC =       905.49996967
  Ewald energy   TEWEN  =    -13695.42136954
  -Hartree energ DENC   =     -7567.53034473
  -exchange      EXHF   =         0.00000000
  -V(xc)+E(xc)   XCENC  =       620.78417647
  PAW double counting   =     25832.50378368   -26118.40952056
  entropy T*S    EENTRO =        -0.00000000
  eigenvalues    EBANDS =     -1901.80900843
  atomic energy  EATOM  =     21740.35362048
  Solvation  Ediel_sol  =         0.00000000
  free energy    TOTEN  =      -184.02869297 eV

  energy without entropy =     -184.02869297  energy(sigma->0) =     -184.02869297

 average (electrostatic) potential at core
  the test charge radii are     0.8614  0.7215  1.1823
  (the norm of the test charge is              1.0000)
       1 -83.4027       2 -83.4024       3 -83.4027       4 -83.4022       5 -71.0049
       6 -71.0051       7 -71.0047       8 -71.0058       9 -71.0051      10 -71.0049
      11 -71.0044      12 -71.0051      13 -71.3404      14 -71.3404      15 -71.3406
      16 -71.3399      17 -71.3452      18 -71.3454      19 -71.3455      20 -71.3449
      21 -43.4970      22 -43.4970      23 -43.4964      24 -43.4967

 E-fermi :   3.4402     XC(G=0): -11.4389     alpha+bet :-10.6772

[...]

 k-point     1 :       0.5000    0.0000    0.0000
  band No.  band energies     occupation
      1     -60.8415      1.00000
      2     -60.8411      1.00000
      3     -60.8361      1.00000
      4     -60.8357      1.00000
      5     -60.8178      1.00000
      6     -60.8175      1.00000
      7     -60.8172      1.00000
      8     -60.8168      1.00000
      9     -60.8161      1.00000
     10     -60.8157      1.00000
     11     -60.8140      1.00000
     12     -60.8136      1.00000
     13     -15.3804      1.00000
     14     -15.3803      1.00000
     15     -14.3912      1.00000
     16     -14.3911      1.00000
     17     -14.3315      1.00000
     18     -14.3314      1.00000
     19     -14.1852      1.00000
     20     -14.1850      1.00000
     21     -14.0362      1.00000
     22     -14.0360      1.00000
     23     -13.8902      1.00000
     24     -13.8902      1.00000
     25     -13.6411      1.00000
     26     -13.6410      1.00000
     27     -13.5937      1.00000
     28     -13.5936      1.00000
     29      -3.3412      1.00000
     30      -3.3410      1.00000
     31      -3.1632      1.00000
     32      -3.1631      1.00000
     33      -3.0546      1.00000
     34      -3.0545      1.00000
     35      -2.9783      1.00000
     36      -2.9782      1.00000
     37      -2.8634      1.00000
     38      -2.8632      1.00000
     39      -2.8474      1.00000
     40      -2.8472      1.00000
     41      -2.4442      1.00000
     42      -2.4441      1.00000
     43      -2.0632      1.00000
     44      -2.0630      1.00000
     45      -1.8717      1.00000
     46      -1.8715      1.00000
     47      -1.5369      1.00000
     48      -1.5368      1.00000
     49      -1.4861      1.00000
     50      -1.4858      1.00000
     51      -1.2922      1.00000
     52      -1.2921      1.00000
     53      -1.2196      1.00000
     54      -1.2194      1.00000
     55      -0.7896      1.00000
     56      -0.7893      1.00000
     57      -0.5633      1.00000
     58      -0.5631      1.00000
     59      -0.5263      1.00000
     60      -0.5261      1.00000
[...]
    106       7.0747      0.00000
    107       7.2185      0.00000
    108       7.2187      0.00000
    109       9.9786      0.00000
    110       9.9790      0.00000
    111       9.9849      0.00000
    112       9.9856      0.00000
    113      10.5960      0.00000
    114      10.5964      0.00000
    115      11.0026      0.00000
    116      11.0030      0.00000
    117      11.6055      0.00000
    118      11.6062      0.00000
    119      13.2495      0.00000
    120      13.2496      0.00000

[...]

 spin component 2

[...]

 k-point   240 :       0.5000    0.5000    0.5000
  band No.  band energies     occupation
      1     -58.6854      1.00000
      2     -58.6852      1.00000
      3     -58.6851      1.00000
      4     -58.6848      1.00000
      5     -58.6723      1.00000
      6     -58.6720      1.00000
      7     -58.6713      1.00000
      8     -58.6709      1.00000
      9     -58.6702      1.00000
     10     -58.6699      1.00000
     11     -58.6694      1.00000
     12     -58.6690      1.00000
     13     -14.6449      1.00000
     14     -14.6449      1.00000
     15     -14.5206      1.00000
     16     -14.5203      1.00000
     17     -14.3477      1.00000
     18     -14.3475      1.00000
     19     -14.2541      1.00000
     20     -14.2540      1.00000
     21     -13.9585      1.00000
     22     -13.9583      1.00000
     23     -13.9317      1.00000
     24     -13.9316      1.00000
     25     -13.6146      1.00000
     26     -13.6142      1.00000
     27     -13.5243      1.00000
     28     -13.5242      1.00000
     29      -3.0526      1.00000
     30      -3.0525      1.00000
     31      -2.7202      1.00000
     32      -2.7200      1.00000
     33      -2.2864      1.00000
     34      -2.2863      1.00000
     35      -2.1231      1.00000
     36      -2.1229      1.00000
     37      -2.0644      1.00000
     38      -2.0644      1.00000
     39      -1.9934      1.00000
     40      -1.9933      1.00000
     41      -1.1982      1.00000
     42      -1.1981      1.00000
     43      -1.0229      1.00000
     44      -1.0228      1.00000
     45      -0.7799      1.00000
     46      -0.7798      1.00000
     47      -0.6343      1.00000
     48      -0.6341      1.00000
     49      -0.5183      1.00000
     50      -0.5182      1.00000
     51      -0.4477      1.00000
     52      -0.4474      1.00000
     53      -0.4435      1.00000
     54      -0.4434      1.00000
     55      -0.0843      1.00000
     56      -0.0842      1.00000
     57       0.1818      1.00000
     58       0.1818      1.00000
     59       0.3976      1.00000
     60       0.3976      1.00000
[...]
    106       7.8346      0.00000
    107       7.8528      0.00000
    108       7.8529      0.00000
    109       9.5338      0.00000
    110       9.5339      0.00000
    111      10.3483      0.00000
    112      10.3484      0.00000
    113      11.1604      0.00000
    114      11.1608      0.00000
    115      11.6495      0.00000
    116      11.6498      0.00000
    117      12.9073      0.00000
    118      12.9074      0.00000
    119      13.5084      0.00000
    120      13.5551      0.00000

 soft charge-density along one line, spin component           1
         0         1         2         3         4         5         6         7         8         9
 total charge-density along one line

 soft charge-density along one line, spin component           2
         0         1         2         3         4         5         6         7         8         9
 total charge-density along one line

------------------------ aborting loop because EDIFF is reached ----------------------------------------

 total charge

# of ion       s       p       d       tot
    1        0.203   6.179   7.879  14.262
    2        0.203   6.179   7.879  14.262
    3        0.203   6.179   7.879  14.262
    4        0.203   6.179   7.879  14.262
    5        1.567   3.487   0.000   5.054
    6        1.567   3.487   0.000   5.054
    7        1.567   3.487   0.000   5.054
    8        1.567   3.487   0.000   5.054
    9        1.567   3.487   0.000   5.054
   10        1.567   3.487   0.000   5.054
   11        1.567   3.487   0.000   5.054
   12        1.567   3.487   0.000   5.054
   13        1.572   3.477   0.000   5.049
   14        1.572   3.477   0.000   5.049
   15        1.572   3.477   0.000   5.049
   16        1.572   3.477   0.000   5.049
   17        1.572   3.476   0.000   5.049
   18        1.572   3.476   0.000   5.049
   19        1.572   3.477   0.000   5.049
   20        1.572   3.476   0.000   5.049
   21        0.709   1.033   4.092   5.834
   22        0.709   1.033   4.092   5.834
   23        0.709   1.033   4.092   5.834
   24        0.709   1.033   4.092   5.834
tot         28.766  84.555  47.884 161.206

 magnetization (x)

[...]

  FORCE on cell =-STRESS in cart. coord.  units (eV):
  Direction    XX          YY          ZZ          XY          YZ          ZX
  Alpha Z   905.49997   905.49997   905.49997
  Ewald   -5217.55815 -4810.49788 -3667.40587     0.06887    -0.08308    38.01600
  Hartree  2026.23433  2337.74321  3203.58860     0.00981    -0.04877     5.81531
  E(xc)   -1064.83786 -1063.07248 -1064.26635     0.00027     0.00610    -0.33768
  Local     -31.19192  -741.36226 -2728.40869    -0.06305     0.14106   -42.10557
  n-local  -753.29475  -757.18167  -744.03599     0.05301    -0.00344     0.60492
  augment   842.82412   842.94516   839.37655    -0.03782     0.00242     0.43065
  Kinetic  3294.19443  3288.51361  3256.86186     0.02912    -0.03433    -2.85806
  Fock        0.00000     0.00000     0.00000     0.00000     0.00000     0.00000
  Total       1.87018     2.58766     1.21008     0.06020    -0.02004    -0.43442
  in kB      11.54100    15.96865     7.46748     0.37153    -0.12369    -2.68083

 VOLUME and BASIS-vectors are now :
  energy-cutoff  :      500.00
  volume of cell :      259.63
      direct lattice vectors                 reciprocal lattice vectors
     9.183406645 -0.000104252  0.048264614     0.108888386  0.000001236  0.000697706
    -0.000064534  5.705387348 -0.000037879     0.000001984  0.175272938  0.000001163
    -0.031749505 -0.000032507  4.955027406    -0.001060631  0.000001328  0.201808435

  length of vectors
     9.183533475  5.705387349  4.955129123     0.108890621  0.175272938  0.201811222

 FORCES acting on ions
    electron-ion (+dipol)            ewald-force                    non-local-force                 convergence-correction
   0.401E-01 -.256E+03 0.744E-02   -.546E-01 0.257E+03 0.643E-02   0.121E-01 -.787E+00 -.131E-01   -.146E-03 0.185E-01 0.350E-03
   -.252E-01 -.256E+03 0.240E-02   0.831E-02 0.257E+03 0.127E-01   0.147E-01 -.786E+00 -.144E-01   -.149E-03 0.184E-01 0.472E-03
   0.245E-01 0.256E+03 -.464E-01   -.911E-02 -.257E+03 0.319E-01   -.130E-01 0.786E+00 0.144E-01   0.167E-03 -.185E-01 -.330E-03
   -.105E-01 0.256E+03 -.319E-01   0.260E-01 -.257E+03 0.163E-01   -.131E-01 0.787E+00 0.151E-01   0.158E-03 -.186E-01 -.389E-03
   0.518E+02 0.107E+03 -.348E+02   -.393E+02 -.106E+03 0.271E+02   -.128E+02 -.939E+00 0.791E+01   0.157E-02 -.109E-02 -.737E-04
   0.519E+02 0.107E+03 -.348E+02   -.394E+02 -.106E+03 0.271E+02   -.128E+02 -.939E+00 0.792E+01   0.147E-02 -.109E-02 -.319E-04
   -.519E+02 -.107E+03 0.348E+02   0.393E+02 0.106E+03 -.271E+02   0.128E+02 0.945E+00 -.793E+01   -.152E-02 0.105E-02 0.158E-04
   -.519E+02 -.107E+03 0.348E+02   0.393E+02 0.106E+03 -.270E+02   0.128E+02 0.936E+00 -.792E+01   -.152E-02 0.110E-02 0.399E-04
   -.518E+02 0.107E+03 0.348E+02   0.393E+02 -.106E+03 -.271E+02   0.128E+02 -.933E+00 -.788E+01   -.163E-02 -.119E-02 0.182E-03
   -.519E+02 0.107E+03 0.348E+02   0.394E+02 -.106E+03 -.271E+02   0.128E+02 -.925E+00 -.789E+01   -.157E-02 -.117E-02 0.117E-03
   0.518E+02 -.107E+03 -.347E+02   -.393E+02 0.106E+03 0.271E+02   -.128E+02 0.931E+00 0.787E+01   0.167E-02 0.117E-02 -.172E-03
   0.519E+02 -.107E+03 -.348E+02   -.394E+02 0.106E+03 0.271E+02   -.128E+02 0.931E+00 0.788E+01   0.158E-02 0.116E-02 -.142E-03
   0.177E+03 0.105E+03 0.498E+02   -.170E+03 -.948E+02 -.436E+02   -.786E+01 -.110E+02 -.650E+01   0.360E-02 -.465E-02 -.122E-02
   0.177E+03 0.105E+03 0.498E+02   -.170E+03 -.948E+02 -.436E+02   -.787E+01 -.110E+02 -.650E+01   0.364E-02 -.462E-02 -.117E-02
   -.177E+03 -.105E+03 -.498E+02   0.170E+03 0.948E+02 0.436E+02   0.786E+01 0.110E+02 0.650E+01   -.363E-02 0.470E-02 0.118E-02
   -.177E+03 -.105E+03 -.498E+02   0.170E+03 0.948E+02 0.436E+02   0.787E+01 0.110E+02 0.650E+01   -.359E-02 0.470E-02 0.119E-02
   -.177E+03 0.105E+03 -.498E+02   0.170E+03 -.948E+02 0.436E+02   0.791E+01 -.110E+02 0.650E+01   -.347E-02 -.459E-02 0.126E-02
   -.177E+03 0.105E+03 -.498E+02   0.170E+03 -.948E+02 0.436E+02   0.792E+01 -.110E+02 0.649E+01   -.342E-02 -.457E-02 0.128E-02
   0.177E+03 -.105E+03 0.498E+02   -.170E+03 0.948E+02 -.436E+02   -.791E+01 0.110E+02 -.650E+01   0.347E-02 0.453E-02 -.130E-02
   0.177E+03 -.105E+03 0.498E+02   -.170E+03 0.948E+02 -.436E+02   -.791E+01 0.110E+02 -.649E+01   0.340E-02 0.459E-02 -.131E-02
   -.258E-01 0.472E+02 0.124E-01   0.242E-01 -.470E+02 -.103E-01   0.100E-02 0.129E+00 0.193E-01   0.961E-04 -.111E-01 0.659E-04
   0.269E-01 0.472E+02 -.535E-02   -.299E-01 -.470E+02 0.501E-02   0.729E-03 0.128E+00 0.197E-01   0.451E-04 -.112E-01 0.680E-04
   -.218E-01 -.472E+02 0.483E-01   0.249E-01 0.470E+02 -.503E-01   -.729E-03 -.128E+00 -.219E-01   -.318E-04 0.111E-01 -.680E-04
   0.287E-01 -.472E+02 -.231E-01   -.253E-01 0.470E+02 0.236E-01   -.704E-03 -.128E+00 -.184E-01   -.988E-04 0.112E-01 -.844E-04
   0.679E-02 -.909E-02 0.365E-02   0.142E-13 -.355E-13 0.415E-13   0.157E-02 0.117E-01 -.170E-01   0.863E-04 -.747E-04 -.685E-04

 POSITION                                       TOTAL-FORCE (eV/Angst)
      2.28786      3.72752      1.25079        -0.002869      0.184594      0.001695
      6.87955      3.72749      1.27489        -0.002732      0.183847      0.001676
      2.27202      1.97777      3.72831         0.002173     -0.184990      0.000128
      6.86370      1.97779      3.75245         0.002198     -0.184267     -0.000388
      0.98974      0.62594      4.60785        -0.236445     -0.077019      0.197847
      5.58149      0.62605      4.63187        -0.245234     -0.078725      0.203340
      3.57013      5.07916      0.37139         0.244326      0.082766     -0.209740
      8.16185      5.07910      0.39534         0.233877      0.078783     -0.193233
      3.55433      0.62593      2.84889         0.256215     -0.087293     -0.203828
      8.14589      0.62607      2.87299         0.256407     -0.087640     -0.204129
      1.00555      5.07941      2.13034        -0.248362      0.087051      0.198660
      5.59734      5.07917      2.15438        -0.256460      0.087981      0.203674
      1.18609      2.15659      2.01868        -0.430011     -0.388916     -0.297625
      5.77780      2.15644      2.04279        -0.434554     -0.383520     -0.294907
      3.37396      3.54875      2.96052         0.426859      0.386859      0.296949
      7.96553      3.54879      2.98457         0.432969      0.382970      0.295083
      3.38986      2.15650      0.48293         0.445614     -0.397610      0.294941
      7.98140      2.15643      0.50711         0.450966     -0.392309      0.292470
      1.17000      3.54875      4.49610        -0.444554      0.395106     -0.292379
      5.76187      3.54882      4.52022        -0.451069      0.391911     -0.291293
      9.17538      1.00914      1.28708        -0.000921      0.379118      0.021945
      4.58379      1.00911      1.26287        -0.002605      0.379086      0.020029
      9.15953      4.69604      3.76462         0.001946     -0.378834     -0.023513
      4.56786      4.69614      3.74031         0.002266     -0.378948     -0.017403
    total drift:                                0.008449      0.002511     -0.013409

  FREE ENERGIE OF THE ION-ELECTRON SYSTEM (eV)
  free  energy   TOTEN  =      -184.02869297 eV

  energy  without entropy=     -184.02869297  energy(sigma->0) =     -184.02869297

 writing wavefunctions

 total charge

[...]

 magnetization (x)

# of ion       s       p       d       tot
    1        0.006   0.005   1.757   1.768
    2        0.006   0.005   1.757   1.768
    3        0.006   0.005   1.757   1.768
    4        0.006   0.005   1.757   1.768
    5        0.004   0.024   0.000   0.029
    6        0.004   0.024   0.000   0.029
    7        0.004   0.024   0.000   0.029
    8        0.004   0.024   0.000   0.029
    9        0.004   0.025   0.000   0.029
   10        0.004   0.025   0.000   0.029
   11        0.004   0.025   0.000   0.029
   12        0.004   0.025   0.000   0.029
   13        0.008   0.036   0.000   0.043
   14        0.008   0.036   0.000   0.043
   15        0.008   0.036   0.000   0.043
   16        0.008   0.036   0.000   0.044
   17        0.008   0.036   0.000   0.044
   18        0.008   0.036   0.000   0.044
   19        0.008   0.036   0.000   0.044
   20        0.008   0.036   0.000   0.044
   21        0.004   0.005   0.065   0.073
   22        0.004   0.005   0.065   0.073
   23        0.004   0.005   0.065   0.073
   24        0.004   0.005   0.065   0.073
tot          0.134   0.524   7.288   7.945