 vasp.5.4.4.18Apr17-6-g9f103f2a35 (build Jan 25 2019 22:30:10) complex

 executed on             LinuxIFC date 2021.08.09  14:40:58

 INCAR:
 POTCAR:    PAW_PBE Ni_pv 06Sep2000
 POTCAR:    PAW_PBE O 08Apr2002
 POTCAR:    PAW_PBE W 08Apr2002
 POTCAR:    PAW_PBE Cu_pv 06Sep2000
 POTCAR:    PAW_PBE Ni_pv 06Sep2000
   VRHFIN =Ni:

   TITEL  = PAW_PBE Ni_pv 06Sep2000
   POMASS =   58.690; ZVAL   =   16.000    mass and valenz
   ENMAX  =  367.986; ENMIN  =  275.989 eV

 POTCAR:    PAW_PBE O 08Apr2002
   VRHFIN =O: s2p4

   TITEL  = PAW_PBE O 08Apr2002
   POMASS =   16.000; ZVAL   =    6.000    mass and valenz
   ENMAX  =  400.000; ENMIN  =  300.000 eV

 POTCAR:    PAW_PBE W 08Apr2002
   VRHFIN =W : 6s5d

   TITEL  = PAW_PBE W 08Apr2002
   POMASS =  183.850; ZVAL   =    6.000    mass and valenz
   ENMAX  =  223.057; ENMIN  =  167.293 eV

 POTCAR:    PAW_PBE Cu_pv 06Sep2000
   VRHFIN =Cu: d10 p1

   TITEL  = PAW_PBE Cu_pv 06Sep2000
   POMASS =   63.546; ZVAL   =   17.000    mass and valenz
   ENMAX  =  368.648; ENMIN  =  276.486 eV

 Optimization of the real space projectors (new method)

 maximal supplied QI-value         = 18.90
 optimisation between [QCUT,QGAM] = [ 11.34, 22.87] = [ 36.00,146.41] Ry
 Optimized for a Real-space Cutoff    1.35 Angstroem

   l    n(q)    QCUT    max X(q) W(low)/X(q) W(high)/X(q)  e(spline)
   1      9    11.338     2.836    0.21E-04    0.44E-04    0.96E-07
   1      9    11.338     4.023    0.81E-04    0.11E-03    0.22E-06
   2      8    11.338    73.368    0.36E-03    0.40E-03    0.33E-06
   2      8    11.338    69.010    0.37E-03    0.41E-03    0.34E-06
   0      9    11.338    54.797    0.66E-04    0.74E-04    0.73E-07
   0      9    11.338    24.266    0.52E-04    0.65E-04    0.65E-07
 Optimization of the real space projectors (new method)

[...]

   l    n(q)    QCUT    max X(q) W(low)/X(q) W(high)/X(q)  e(spline)
   2     10    11.429   130.855    0.22E-03    0.64E-03    0.11E-05
   2     10    11.429   114.007    0.22E-03    0.64E-03    0.11E-05
   0     11    11.429    84.709    0.39E-04    0.67E-04    0.23E-06
   0     11    11.429    49.163    0.35E-04    0.62E-04    0.21E-06
   1     10    11.429    15.765    0.84E-04    0.15E-03    0.24E-06
   1     10    11.429    10.638    0.58E-04    0.12E-03    0.19E-06
 Optimization of the real space projectors (new method)

 maximal supplied QI-value         = 18.90
 optimisation between [QCUT,QGAM] = [ 11.34, 22.87] = [ 36.00,146.41] Ry
 Optimized for a Real-space Cutoff    1.35 Angstroem

   l    n(q)    QCUT    max X(q) W(low)/X(q) W(high)/X(q)  e(spline)
   1      9    11.338     3.172    0.27E-04    0.54E-04    0.11E-06
   1      9    11.338     4.083    0.75E-04    0.10E-03    0.21E-06
   2      8    11.338    65.342    0.34E-03    0.39E-03    0.31E-06
   2      8    11.338    61.381    0.35E-03    0.40E-03    0.31E-06
   0      9    11.338    65.742    0.63E-04    0.53E-04    0.82E-07
   0      9    11.338    30.431    0.56E-04    0.48E-04    0.75E-07
  PAW_PBE Ni_pv 06Sep2000               :
  PAW_PBE O 08Apr2002                   :
  PAW_PBE W 08Apr2002                   :
  PAW_PBE Cu_pv 06Sep2000               :

 POSCAR: Ni O4 W
  positions in direct lattice
  velocities in cartesian coordinates
 exchange correlation table for  LEXCH =        8
   RHO(1)=    0.500       N(1)  =     2000
   RHO(2)=  100.500       N(2)  =     4000

 ion  position               nearest neighbor table
   1  0.250  0.647  0.125-  11 2.00  23 2.00  36 2.01  19 2.01  27 2.01  31 2.01
   2  0.750  0.657  0.125-  38 1.96  29 1.96  33 2.05  25 2.06  21 2.06  13 2.06
   3  0.750  0.657  0.625-  37 1.96  30 1.96  34 2.05  26 2.06  22 2.06  14 2.06
   4  0.250  0.346  0.875-  31 1.98  24 1.98   8 2.01  16 2.01  28 2.03  36 2.03
   5  0.250  0.647  0.625-  12 2.00  24 2.01  20 2.01  35 2.01  28 2.01  32 2.01
   6  0.250  0.347  0.375-  32 1.98  23 1.98   7 2.01  15 2.01  27 2.03  35 2.03
   7  0.114  0.114  0.460-  40 1.94   6 2.01  43 2.11
   8  0.114  0.113  0.960-  39 1.94   4 2.01  44 2.11
   9  0.607  0.108  0.467-  42 1.91  48 2.05  45 2.08
  10  0.606  0.108  0.967-  41 1.91  47 2.05  46 2.08
  11  0.382  0.884  0.038-  46 1.94   1 2.00  41 2.15
  12  0.382  0.884  0.538-  45 1.94   5 2.00  42 2.14
  13  0.891  0.891  0.034-  44 1.95   2 2.06  39 2.09
  14  0.891  0.891  0.534-  43 1.95   3 2.06  40 2.09
  15  0.386  0.113  0.290-  41 1.95   6 2.01  45 2.11
  16  0.386  0.113  0.790-  42 1.95   4 2.01  46 2.11
  17  0.894  0.108  0.282-  39 1.91  48 2.06  43 2.08
  18  0.894  0.108  0.782-  40 1.91  47 2.06  44 2.08
  19  0.118  0.885  0.212-  43 1.94   1 2.01  39 2.14
  20  0.118  0.885  0.712-  44 1.94   5 2.01  40 2.14
  21  0.609  0.891  0.216-  45 1.95   2 2.06  41 2.09
  22  0.609  0.890  0.716-  46 1.95   3 2.06  42 2.09
  23  0.136  0.381  0.205-  39 1.86   6 1.98   1 2.00
  24  0.136  0.380  0.705-  40 1.86   4 1.98   5 2.01
  25  0.628  0.383  0.200-  41 1.82   2 2.06  48 2.07
  26  0.628  0.383  0.700-  42 1.82   3 2.06  47 2.07
  27  0.367  0.617  0.297-  45 1.85   1 2.01   6 2.03
  28  0.367  0.616  0.797-  46 1.85   5 2.01   4 2.03
  29  0.868  0.631  0.291-  43 1.83   2 1.96  48 2.17
  30  0.868  0.631  0.791-  44 1.82   3 1.96  47 2.17
  31  0.364  0.377  0.045-  41 1.86   4 1.98   1 2.01
  32  0.364  0.378  0.545-  42 1.86   6 1.98   5 2.01
  33  0.872  0.384  0.050-  39 1.82   2 2.05  47 2.07
  34  0.872  0.384  0.550-  40 1.82   3 2.05  48 2.07
  35  0.133  0.619  0.453-  43 1.85   5 2.01   6 2.03
  36  0.133  0.619  0.953-  44 1.85   1 2.01   4 2.03
  37  0.632  0.632  0.459-  45 1.83   3 1.96  48 2.18
  38  0.632  0.632  0.959-  46 1.83   2 1.96  47 2.18
  39  0.002  0.176  0.123-  33 1.82  23 1.86  17 1.91   8 1.94  13 2.09  19 2.14  43 3.16  44 3.19

  40  0.002  0.175  0.623-  34 1.82  24 1.86  18 1.91   7 1.94  14 2.09  20 2.14  44 3.16  43 3.19

[...]

  47  0.750  0.334  0.875-  10 2.05  18 2.06  26 2.07  33 2.07  30 2.17  38 2.18
  48  0.750  0.334  0.375-   9 2.05  17 2.06  25 2.07  34 2.07  29 2.17  37 2.18

IMPORTANT INFORMATION: All symmetrisations will be switched off!
NOSYMM: (Re-)initialisation of all symmetry stuff for point group C_1.

 KPOINTS: Automatic mesh

Automatic generation of k-mesh.
Space group operators:
 irot       det(A)        alpha          n_x          n_y          n_z        tau_x        tau_y        tau_z
    1     1.000000     0.000000     1.000000     0.000000     0.000000     0.000000     0.000000     0.000000

 Subroutine IBZKPT returns following result:

 Found     68 irreducible k-points:

 Following reciprocal coordinates:
            Coordinates               Weight
  0.000000  0.000000  0.000000      1.000000
  0.250000 -0.000000  0.000000      2.000000
  0.500000 -0.000000  0.000000      1.000000
 -0.000000  0.125000 -0.000000      2.000000
  0.250000  0.125000  0.000000      2.000000
  0.500000  0.125000  0.000000      2.000000
 -0.250000  0.125000 -0.000000      2.000000
 -0.000000  0.250000 -0.000000      2.000000
  0.250000  0.250000  0.000000      2.000000
  0.500000  0.250000  0.000000      2.000000
 -0.250000  0.250000  0.000000      2.000000
  0.000000  0.375000  0.000000      2.000000
  0.250000  0.375000 -0.000000      2.000000
  0.500000  0.375000  0.000000      2.000000
 -0.250000  0.375000  0.000000      2.000000
 -0.000000  0.500000 -0.000000      1.000000
  0.250000  0.500000  0.000000      2.000000
  0.500000  0.500000  0.000000      1.000000
  0.000000  0.000000  0.250000      2.000000
  0.250000 -0.000000  0.250000      2.000000
  0.500000 -0.000000  0.250000      2.000000
 -0.250000  0.000000  0.250000      2.000000
  0.000000  0.125000  0.250000      2.000000
  0.250000  0.125000  0.250000      2.000000
  0.500000  0.125000  0.250000      2.000000
 -0.250000  0.125000  0.250000      2.000000
 -0.000000  0.250000  0.250000      2.000000
  0.250000  0.250000  0.250000      2.000000
  0.500000  0.250000  0.250000      2.000000
 -0.250000  0.250000  0.250000      2.000000
  0.000000  0.375000  0.250000      2.000000
  0.250000  0.375000  0.250000      2.000000
  0.500000  0.375000  0.250000      2.000000
 -0.250000  0.375000  0.250000      2.000000
  0.000000  0.500000  0.250000      2.000000
  0.250000  0.500000  0.250000      2.000000
  0.500000  0.500000  0.250000      2.000000
 -0.250000  0.500000  0.250000      2.000000
  0.000000 -0.375000  0.250000      2.000000
  0.250000 -0.375000  0.250000      2.000000
  0.500000 -0.375000  0.250000      2.000000
 -0.250000 -0.375000  0.250000      2.000000
  0.000000 -0.250000  0.250000      2.000000
  0.250000 -0.250000  0.250000      2.000000
  0.500000 -0.250000  0.250000      2.000000
 -0.250000 -0.250000  0.250000      2.000000
  0.000000 -0.125000  0.250000      2.000000
  0.250000 -0.125000  0.250000      2.000000
  0.500000 -0.125000  0.250000      2.000000
 -0.250000 -0.125000  0.250000      2.000000
  0.000000  0.000000  0.500000      1.000000
  0.250000  0.000000  0.500000      2.000000
  0.500000 -0.000000  0.500000      1.000000
  0.000000  0.125000  0.500000      2.000000
  0.250000  0.125000  0.500000      2.000000
  0.500000  0.125000  0.500000      2.000000
 -0.250000  0.125000  0.500000      2.000000
  0.000000  0.250000  0.500000      2.000000
  0.250000  0.250000  0.500000      2.000000
  0.500000  0.250000  0.500000      2.000000
 -0.250000  0.250000  0.500000      2.000000
  0.000000  0.375000  0.500000      2.000000
  0.250000  0.375000  0.500000      2.000000
  0.500000  0.375000  0.500000      2.000000
 -0.250000  0.375000  0.500000      2.000000
 -0.000000  0.500000  0.500000      1.000000
  0.250000  0.500000  0.500000      2.000000
  0.500000  0.500000  0.500000      1.000000

 Following cartesian coordinates:
            Coordinates               Weight
  0.000000  0.000000  0.000000      1.000000
  0.027340 -0.000000  0.000167      2.000000
  0.054680 -0.000001  0.000333      1.000000
 -0.000000  0.022060 -0.000001      2.000000
  0.027340  0.022060  0.000165      2.000000
  0.054679  0.022060  0.000332      2.000000
 -0.027340  0.022060 -0.000168      2.000000
 -0.000001  0.044120 -0.000003      2.000000
  0.027339  0.044120  0.000164      2.000000
  0.054679  0.044120  0.000331      2.000000
 -0.027341  0.044121 -0.000169      2.000000
 -0.000001  0.066181 -0.000004      2.000000
  0.027339  0.066180  0.000163      2.000000
  0.054679  0.066180  0.000329      2.000000
 -0.027341  0.066181 -0.000170      2.000000
 -0.000001  0.088241 -0.000005      1.000000
  0.027338  0.088240  0.000162      2.000000
  0.054678  0.088240  0.000328      1.000000
  0.000125 -0.000001  0.025257      2.000000
  0.027465 -0.000002  0.025424      2.000000
  0.054805 -0.000002  0.025591      2.000000
 -0.027215 -0.000001  0.025091      2.000000
  0.000125  0.022059  0.025256      2.000000
  0.027464  0.022059  0.025423      2.000000
  0.054804  0.022058  0.025589      2.000000
 -0.027215  0.022059  0.025090      2.000000
  0.000124  0.044119  0.025255      2.000000
  0.027464  0.044119  0.025422      2.000000
  0.054804  0.044119  0.025588      2.000000
 -0.027216  0.044119  0.025088      2.000000
  0.000124  0.066179  0.025254      2.000000
  0.027464  0.066179  0.025420      2.000000
[...]
    2        0.207   6.190   7.877  14.275
    3        0.207   6.190   7.878  14.275
    4        0.216   6.205   7.868  14.289
    5        0.215   6.203   7.864  14.283
    6        0.216   6.205   7.868  14.289
    7        1.570   3.464   0.000   5.034
    8        1.570   3.464   0.000   5.034
    9        1.573   3.473   0.000   5.046
   10        1.573   3.473   0.000   5.046
   11        1.570   3.459   0.000   5.029
   12        1.570   3.459   0.000   5.029
   13        1.572   3.454   0.000   5.026
   14        1.572   3.455   0.000   5.026
   15        1.571   3.463   0.000   5.033
   16        1.571   3.463   0.000   5.033
   17        1.573   3.475   0.000   5.047
   18        1.573   3.475   0.000   5.047
   19        1.570   3.459   0.000   5.029
   20        1.570   3.459   0.000   5.029
   21        1.572   3.455   0.000   5.027
   22        1.572   3.455   0.000   5.027
   23        1.574   3.444   0.000   5.018
   24        1.574   3.444   0.000   5.018
   25        1.578   3.436   0.000   5.015
   26        1.578   3.436   0.000   5.015
   27        1.575   3.442   0.000   5.017
   28        1.575   3.442   0.000   5.017
   29        1.577   3.440   0.000   5.017
   30        1.577   3.440   0.000   5.017
   31        1.574   3.444   0.000   5.018
   32        1.574   3.444   0.000   5.018
   33        1.578   3.437   0.000   5.015
   34        1.578   3.437   0.000   5.015
   35        1.575   3.442   0.000   5.017
   36        1.575   3.442   0.000   5.017
   37        1.577   3.440   0.000   5.017
   38        1.577   3.440   0.000   5.017
   39        0.699   1.006   4.145   5.850
   40        0.699   1.007   4.147   5.852
   41        0.698   1.003   4.143   5.843
   42        0.697   1.003   4.142   5.842
   43        0.695   1.005   4.137   5.836
   44        0.695   1.005   4.137   5.837
   45        0.695   1.006   4.136   5.837
   46        0.695   1.006   4.136   5.837
   47        0.174   6.134   8.894  15.201
   48        0.174   6.134   8.895  15.202
tot         57.555 167.961  98.130 323.647

  FORCE on cell =-STRESS in cart. coord.  units (eV):
  Direction    XX          YY          ZZ          XY          YZ          ZX
  Alpha Z  1845.13623  1845.13623  1845.13623
  Ewald  -10703.65648 -9788.43811 -7371.70498     0.93556    -9.94065   119.23863
  Hartree  4199.81839  4951.53106  6754.32698    -0.45756    -5.91871    20.24728
  E(xc)   -2154.83506 -2152.46597 -2154.49140     0.03679    -0.01103    -1.08931
  Local      68.47749 -1585.91933 -5752.12534    -0.16101    15.15518  -126.85457
  n-local -1504.88970 -1514.25874 -1493.87576    -0.04080    -0.23161     0.91123
  augment  1695.71160  1700.79470  1687.05312    -0.16684     0.29148    -4.12907
  Kinetic  6554.11705  6543.46364  6485.55674    -0.12803     0.64387    -8.35064
  Fock        0.00000     0.00000     0.00000     0.00000     0.00000     0.00000
  Total      -0.12048    -0.15651    -0.12439     0.01811    -0.01147    -0.02644
  in kB      -0.37636    -0.48894    -0.38860     0.05657    -0.03585    -0.08261

 VOLUME and BASIS-vectors are now :
  energy-cutoff  :      500.00
  volume of cell :      512.87
      direct lattice vectors                 reciprocal lattice vectors
     9.144423289  0.000146579 -0.045228287     0.109359564 -0.000001185  0.000666490
     0.000059700  5.666321561  0.000276693    -0.000002879  0.176481337 -0.000010154
    -0.060325398  0.000568500  9.898367703     0.000499693 -0.000004939  0.101029804

  length of vectors
     9.144535139  5.666321568  9.898551544     0.109361595  0.176481337  0.101031040

 FORCES acting on ions
    electron-ion (+dipol)            ewald-force                    non-local-force                 convergence-correction
   -.200E+01 -.261E+03 -.142E+01   0.195E+01 0.263E+03 0.141E+01   0.429E-01 -.139E+01 0.207E-01   0.155E-02 0.938E-02 -.126E-01
   0.681E+00 -.255E+03 -.318E+00   -.690E+00 0.256E+03 0.301E+00   0.120E-01 -.485E+00 0.368E-01   -.184E-02 -.597E-01 -.200E-01
   0.167E+00 -.255E+03 0.319E+00   -.190E+00 0.256E+03 -.360E+00   0.253E-01 -.479E+00 0.219E-01   0.168E-02 -.592E-01 0.196E-01
   0.700E+00 0.259E+03 0.846E+00   -.637E+00 -.261E+03 -.822E+00   -.636E-01 0.127E+01 -.149E-01   0.130E-02 -.244E-01 -.972E-02
   -.171E+01 -.261E+03 -.443E+00   0.166E+01 0.263E+03 0.416E+00   0.511E-01 -.139E+01 0.140E-01   -.123E-02 0.958E-02 0.128E-01
   0.398E+00 0.259E+03 0.739E+00   -.339E+00 -.260E+03 -.736E+00   -.557E-01 0.128E+01 -.133E-01   -.115E-02 -.249E-01 0.950E-02
   0.733E+02 0.122E+03 -.448E+02   -.624E+02 -.122E+03 0.384E+02   -.108E+02 -.987E-01 0.643E+01   -.383E-01 -.357E-02 0.480E-02
   0.735E+02 0.122E+03 -.451E+02   -.627E+02 -.122E+03 0.387E+02   -.108E+02 -.879E-01 0.642E+01   -.386E-01 0.569E-03 -.481E-02
   0.583E+02 0.102E+03 -.422E+02   -.449E+02 -.997E+02 0.346E+02   -.135E+02 -.201E+01 0.768E+01   0.612E-01 0.399E-01 -.223E-01
   0.583E+02 0.102E+03 -.422E+02   -.449E+02 -.997E+02 0.346E+02   -.135E+02 -.200E+01 0.770E+01   0.702E-01 0.478E-01 -.328E-01
   -.716E+02 -.125E+03 0.414E+02   0.601E+02 0.126E+03 -.345E+02   0.114E+02 -.139E+01 -.682E+01   0.402E-01 0.202E-01 -.143E-01
   -.710E+02 -.124E+03 0.416E+02   0.595E+02 0.126E+03 -.348E+02   0.115E+02 -.132E+01 -.681E+01   0.322E-01 0.149E-01 -.201E-02
   -.532E+02 -.973E+02 0.396E+02   0.411E+02 0.958E+02 -.333E+02   0.121E+02 0.147E+01 -.628E+01   -.280E-01 0.196E-01 -.177E-01
   -.530E+02 -.970E+02 0.397E+02   0.409E+02 0.955E+02 -.334E+02   0.121E+02 0.152E+01 -.629E+01   -.213E-01 0.199E-01 -.962E-02
   -.724E+02 0.122E+03 0.454E+02   0.615E+02 -.122E+03 -.391E+02   0.109E+02 -.300E+00 -.624E+01   0.394E-01 -.311E-02 -.170E-02
   -.727E+02 0.122E+03 0.456E+02   0.618E+02 -.122E+03 -.394E+02   0.109E+02 -.299E+00 -.623E+01   0.374E-01 0.544E-04 0.178E-02
   -.569E+02 0.101E+03 0.416E+02   0.432E+02 -.990E+02 -.340E+02   0.137E+02 -.204E+01 -.763E+01   -.622E-01 0.395E-01 0.225E-01
   -.568E+02 0.101E+03 0.417E+02   0.432E+02 -.989E+02 -.341E+02   0.137E+02 -.206E+01 -.764E+01   -.690E-01 0.478E-01 0.327E-01
   0.690E+02 -.123E+03 -.414E+02   -.574E+02 0.124E+03 0.346E+02   -.116E+02 -.113E+01 0.673E+01   -.386E-01 0.192E-01 0.713E-02
   0.697E+02 -.124E+03 -.413E+02   -.581E+02 0.125E+03 0.346E+02   -.115E+02 -.117E+01 0.672E+01   -.335E-01 0.160E-01 0.897E-02
   0.543E+02 -.979E+02 -.403E+02   -.422E+02 0.963E+02 0.342E+02   -.121E+02 0.157E+01 0.603E+01   0.257E-01 0.184E-01 0.784E-02
   0.544E+02 -.983E+02 -.403E+02   -.424E+02 0.967E+02 0.342E+02   -.120E+02 0.155E+01 0.605E+01   0.232E-01 0.209E-01 0.197E-01
   0.208E+03 0.121E+03 0.574E+02   -.203E+03 -.112E+03 -.517E+02   -.458E+01 -.895E+01 -.567E+01   -.467E-01 -.201E-01 -.134E-02
   0.208E+03 0.121E+03 0.580E+02   -.203E+03 -.112E+03 -.524E+02   -.461E+01 -.902E+01 -.566E+01   -.405E-01 -.147E-01 0.491E-02
   0.177E+03 0.936E+02 0.455E+02   -.168E+03 -.820E+02 -.382E+02   -.831E+01 -.115E+02 -.729E+01   0.515E-01 -.228E-01 0.370E-01
   0.176E+03 0.939E+02 0.457E+02   -.168E+03 -.823E+02 -.385E+02   -.831E+01 -.115E+02 -.727E+01   0.539E-01 -.261E-01 0.591E-01
   -.203E+03 -.119E+03 -.514E+02   0.198E+03 0.110E+03 0.455E+02   0.554E+01 0.947E+01 0.588E+01   0.432E-01 0.397E-02 0.139E-01
   -.204E+03 -.119E+03 -.516E+02   0.198E+03 0.110E+03 0.457E+02   0.548E+01 0.950E+01 0.585E+01   0.390E-01 0.936E-03 0.103E-01
   -.169E+03 -.915E+02 -.814E+02   0.161E+03 0.790E+02 0.774E+02   0.833E+01 0.126E+02 0.393E+01   -.395E-01 -.415E-01 0.268E-01
   -.169E+03 -.917E+02 -.815E+02   0.161E+03 0.791E+02 0.775E+02   0.837E+01 0.126E+02 0.391E+01   -.427E-01 -.500E-01 0.383E-01
   -.206E+03 0.122E+03 -.608E+02   0.201E+03 -.113E+03 0.554E+02   0.494E+01 -.883E+01 0.539E+01   0.456E-01 -.195E-01 -.956E-02
   -.206E+03 0.122E+03 -.599E+02   0.201E+03 -.113E+03 0.545E+02   0.492E+01 -.884E+01 0.541E+01   0.409E-01 -.152E-01 0.639E-02
   -.176E+03 0.941E+02 -.442E+02   0.168E+03 -.827E+02 0.370E+02   0.832E+01 -.114E+02 0.723E+01   -.577E-01 -.243E-01 -.573E-01
   -.176E+03 0.941E+02 -.441E+02   0.168E+03 -.826E+02 0.369E+02   0.833E+01 -.115E+02 0.723E+01   -.476E-01 -.250E-01 -.386E-01
   0.202E+03 -.120E+03 0.538E+02   -.196E+03 0.110E+03 -.481E+02   -.579E+01 0.938E+01 -.568E+01   -.395E-01 0.515E-02 -.467E-02
   0.202E+03 -.120E+03 0.536E+02   -.196E+03 0.110E+03 -.479E+02   -.579E+01 0.937E+01 -.566E+01   -.418E-01 -.177E-03 -.196E-01
   0.169E+03 -.912E+02 0.818E+02   -.161E+03 0.788E+02 -.779E+02   -.835E+01 0.125E+02 -.388E+01   0.371E-01 -.416E-01 -.298E-01
   0.169E+03 -.910E+02 0.815E+02   -.161E+03 0.786E+02 -.776E+02   -.837E+01 0.125E+02 -.390E+01   0.448E-01 -.497E-01 -.353E-01
   -.147E+01 0.473E+02 0.176E+01   0.120E+01 -.471E+02 -.168E+01   0.332E+00 -.205E+00 -.694E-01   -.485E-01 0.466E-02 -.639E-02
   -.140E+01 0.475E+02 0.197E+01   0.112E+01 -.472E+02 -.190E+01   0.327E+00 -.216E+00 -.724E-01   -.446E-01 0.561E-02 0.540E-02
   0.131E+01 0.472E+02 -.172E+01   -.104E+01 -.469E+02 0.166E+01   -.306E+00 -.234E+00 0.629E-01   0.484E-01 0.559E-02 -.558E-02
   0.121E+01 0.471E+02 -.149E+01   -.950E+00 -.469E+02 0.142E+01   -.306E+00 -.232E+00 0.613E-01   0.447E-01 0.481E-02 0.653E-02
   0.416E+01 -.390E+02 -.748E+01   -.422E+01 0.391E+02 0.721E+01   0.106E+00 -.158E-01 0.266E+00   -.403E-01 0.428E-02 0.274E-03
   0.420E+01 -.390E+02 -.746E+01   -.426E+01 0.390E+02 0.719E+01   0.107E+00 -.169E-01 0.268E+00   -.429E-01 0.490E-02 -.240E-02
   -.420E+01 -.390E+02 0.788E+01   0.427E+01 0.390E+02 -.759E+01   -.101E+00 -.165E-01 -.286E+00   0.403E-01 0.510E-02 0.218E-02
   -.425E+01 -.391E+02 0.782E+01   0.431E+01 0.391E+02 -.753E+01   -.104E+00 -.149E-01 -.288E+00   0.429E-01 0.392E-02 0.142E-04
   -.873E+00 0.229E+03 -.980E+00   0.813E+00 -.231E+03 0.947E+00   0.632E-01 0.146E+01 0.301E-01   -.104E-02 -.168E-01 0.294E-02
   -.819E+00 0.229E+03 -.102E+01   0.754E+00 -.231E+03 0.997E+00   0.654E-01 0.145E+01 0.246E-01   0.733E-03 -.169E-01 -.302E-02
   -.678E+00 0.103E+01 0.345E+00   0.711E-13 -.171E-12 -.305E-12   0.750E+00 -.764E+00 -.314E+00   0.335E-04 -.167E+00 0.460E-03

 POSITION                                       TOTAL-FORCE (eV/Angst)
      2.27822      3.66603      1.22474        -0.000033      0.002032     -0.000574
      6.85077      3.72470      1.20369         0.000478      0.000600     -0.000946
      6.82009      3.72483      6.15315         0.002332      0.000397      0.000022
      2.23317      1.96366      8.65018        -0.000396      0.000090     -0.000762
      2.24806      3.66672      6.17523        -0.000111      0.001659     -0.001045
      2.26378      1.96470      3.70133         0.000416     -0.000945     -0.001165
      1.01199      0.64399      4.55291         0.000739      0.000274     -0.003796
      0.98173      0.64346      9.50197         0.005295      0.000052      0.001530
      5.51859      0.61192      4.59861         0.001776     -0.004775      0.000817
      5.48757      0.61208      9.54769         0.001627      0.002616     -0.001090
      3.48701      5.00868      0.36075        -0.005557     -0.003372      0.001997
      3.45754      5.01061      5.31004         0.004157     -0.003093     -0.003459
      8.14935      5.04913      0.29849         0.001131      0.002868     -0.001793
      8.11940      5.04935      5.24709        -0.002681     -0.000266     -0.005248
      3.51398      0.63858      2.85029         0.002143      0.002189      0.005637
      3.48343      0.63833      7.79927        -0.003630      0.002066      0.002417
      8.15414      0.61226      2.75093        -0.000531      0.005191      0.001044
      8.12398      0.61220      7.70050        -0.000550      0.003206      0.000478
      1.06836      5.01742      2.08931        -0.005403     -0.001921     -0.000957
      1.03838      5.01601      7.03859         0.002714      0.003736      0.001091
      5.55426      5.04637      2.10799        -0.005864      0.003362      0.000501
      5.52304      5.04493      7.05688         0.001947     -0.002670     -0.000703
      1.22876      2.15664      2.02442        -0.003368      0.001687      0.004464
      1.19713      2.15492      6.97411         0.002032      0.003237      0.006608
      5.72882      2.17240      1.95489         0.001392     -0.003908      0.003257
      5.69902      2.17188      6.90435         0.001948     -0.007188      0.002467
      3.34033      3.49505      2.92458         0.000874     -0.011248     -0.003946
      3.30964      3.49347      7.87378        -0.000504     -0.000831      0.000906
      7.92285      3.57541      2.83907        -0.000429      0.003183     -0.001948
      7.89058      3.57728      7.78930        -0.004465     -0.003445      0.001276
      3.32297      2.13862      0.43006        -0.011824      0.001904     -0.003799
      3.29329      2.14176      5.38045         0.003207      0.000465      0.005252
      7.97318      2.17602      0.45688        -0.004459      0.001726     -0.002542
      7.94324      2.17668      5.40653        -0.000149      0.003745     -0.003828
      1.19225      3.50718      4.47533         0.003708      0.000738     -0.000596
      1.16186      3.50644      9.42319        -0.000717     -0.005704     -0.001768
      5.74950      3.57886      4.51833        -0.002589     -0.004928     -0.001738
      5.71859      3.57959      9.46777         0.003309     -0.001221      0.000331
      0.01502      0.99469      1.21702         0.002025      0.000003      0.000527
     -0.01595      0.99419      6.16589         0.002191     -0.001510      0.000410
      4.54785      0.98900      1.23547         0.002119     -0.000660      0.000164
      4.51727      0.98945      6.18429        -0.000112     -0.000272     -0.000704
      0.00172      4.67411      3.67642         0.002118      0.002335      0.001376
     -0.02884      4.67416      8.62600         0.002626      0.002746      0.000337
      4.52193      4.67156      3.72363         0.000407     -0.000140     -0.000417
      4.49093      4.67132      8.67258        -0.000820     -0.000290      0.000252
      6.80578      1.89087      8.62893         0.000996      0.002962     -0.000259
      6.83643      1.89107      3.67954         0.000486      0.003319     -0.000080
    total drift:                                0.072200      0.103017      0.031048

  FREE ENERGIE OF THE ION-ELECTRON SYSTEM (eV)
  free  energy   TOTEN  =      -377.25475177 eV

  energy  without entropy=     -377.25475177  energy(sigma->0) =     -377.25475177

 writing wavefunctions

 total charge

# of ion       s       p       d       tot
    1        0.215   6.203   7.864  14.283
    2        0.207   6.190   7.877  14.275
    3        0.207   6.190   7.878  14.275
    4        0.216   6.205   7.868  14.289
    5        0.215   6.203   7.864  14.283
    6        0.216   6.205   7.868  14.289
    7        1.570   3.464   0.000   5.034
    8        1.570   3.464   0.000   5.034
    9        1.573   3.473   0.000   5.046
   10        1.573   3.473   0.000   5.046
   11        1.570   3.459   0.000   5.029
   12        1.570   3.459   0.000   5.029
   13        1.572   3.454   0.000   5.026
   14        1.572   3.455   0.000   5.026
   15        1.571   3.463   0.000   5.033
   16        1.571   3.463   0.000   5.033
   17        1.573   3.475   0.000   5.047
   18        1.573   3.475   0.000   5.047
   19        1.570   3.459   0.000   5.029
   20        1.570   3.459   0.000   5.029
   21        1.572   3.455   0.000   5.027
   22        1.572   3.455   0.000   5.027
   23        1.574   3.444   0.000   5.018
   24        1.574   3.444   0.000   5.018
   25        1.578   3.436   0.000   5.015
   26        1.578   3.436   0.000   5.015
   27        1.575   3.442   0.000   5.017
   28        1.575   3.442   0.000   5.017
   29        1.577   3.440   0.000   5.017
   30        1.577   3.440   0.000   5.017
   31        1.574   3.444   0.000   5.018
   32        1.574   3.444   0.000   5.018
   33        1.578   3.437   0.000   5.015
   34        1.578   3.437   0.000   5.015
   35        1.575   3.442   0.000   5.017
   36        1.575   3.442   0.000   5.017
   37        1.577   3.440   0.000   5.017
   38        1.577   3.440   0.000   5.017
   39        0.699   1.006   4.145   5.850
   40        0.699   1.007   4.147   5.852
   41        0.698   1.003   4.143   5.843
   42        0.697   1.003   4.142   5.842
   43        0.695   1.005   4.137   5.836
   44        0.695   1.005   4.137   5.837
   45        0.695   1.006   4.136   5.837
   46        0.695   1.006   4.136   5.837
   47        0.174   6.134   8.894  15.201
   48        0.174   6.134   8.895  15.202
tot         57.555 167.961  98.130 323.647

 BZINTS: Fermi energy:  4.349130;370.000000 electrons
         Band energy:***********;  BLOECHL correction: -0.014492